#input for KTaO3

ndtset    3

autoparal 1

#Crystal Def.
ntypat   3
natom    26
typat    4*1 4*2 18*3
znucl    57 42 8
acell 3*1


rprim
  1.32977089480557E+01  0.00000000000000E+00  0.00000000000000E+00
  0.00000000000000E+00  1.35512401834538E+01  6.78532067842487E-01
  0.00000000000000E+00  7.05710503146197E-01  1.35392860110618E+01

             xred      8.6987066762E-01  8.7208985142E-01  8.1946687954E-01
                       3.6987066762E-01  6.2791014858E-01  1.8053312046E-01
                       1.2415208663E-01  3.3581429333E-01  6.0509745950E-01
                       6.2415208663E-01  1.6418570667E-01  3.9490254050E-01
                       1.6141478666E-01  1.1968134537E-01  1.8931794792E-01
                       6.6141478666E-01  3.8031865463E-01  8.1068205208E-01
                       8.3132445034E-01  7.0453546703E-01  2.9832769277E-01
                       3.3132445034E-01  7.9546453297E-01  7.0167230723E-01
                       3.1917733702E-01  3.0582490364E-01  3.0397181776E-01
                       8.1917733702E-01  1.9417509636E-01  6.9602818224E-01
                       6.8324961187E-01  7.8623541102E-01  9.9104140306E-02
                       1.8324961187E-01  7.1376458898E-01  9.0089585969E-01
                       9.7347363188E-01  2.0008488913E-01  3.3896364074E-01
                       4.7347363188E-01  2.9991511087E-01  6.6103635926E-01
                       4.3540448052E-02  5.7096944395E-01  3.0131830939E-01
                       5.4354044805E-01  9.2903055605E-01  6.9868169061E-01
                       3.6789116209E-01  9.6282255265E-01  2.5009975237E-01
                       1.6742762734E-01 -1.6062028690E-02  6.3335274597E-01
                       8.6789116209E-01  5.3717744735E-01  7.4990024763E-01
                       6.6742762734E-01  5.1606202869E-01  3.6664725403E-01
                       1.6273960292E-01  2.2987948748E-01  9.5968617114E-01
                       8.1202189471E-01  8.5869365380E-01  4.7393136127E-01
                       3.1202189471E-01  6.4130634620E-01  5.2606863873E-01
                       6.6273960292E-01  2.7012051252E-01  4.0313828862E-02
                       8.7166928694E-03 -8.5830132153E-02  1.4429487121E-01
                       5.0871669287E-01  5.8583013215E-01  8.5570512879E-01
 
#chksymbreak 0
kptopt   1
ngkpt    2 2 2
nshiftk 1
shiftk
0.5 0.5 0.5
ngfft 72 72 72

ecutsm 0.5
ecut 30
ixc      -116133
nband    104
nstep    150
diemac   4


# Data set 1 - Refinement of already computed GS WFs       
irdwfk1   1
irdden1   1
iscf1     7
tolvrs1   1.0E-22
nstep1    100

# Data Set 2: Response Function calculation : d/dk 
ird1wf2    1
rfelfd2    2 
rfdir2     1    1    1 

nqpt2      1 
qpt2       0.0  0.0  0.0  

getwfk2   -1 
getden2   -1 

kptopt2    2 

iscf2     -3 

tolwfr2    1.0d-22 

# Data set 3 : Response Function calculation - electric field perturbation, phonons, and strain
ird1wf3   1
rfphon3   1            # Will consider phonon-type perturbation 
rfelfd3   3            # Electric Field
rfstrs3   0            # Strains

rfdir3    1   1   1    # Along all reduced coordinate axis 
rfatpol3  1   26        # All the atoms will be displaced 

nqpt3     1            # One wavevector is to be considered 
qpt3      0.0 0.0 0.0  # This wavevector is q=0 (Gamma) 

kptopt3   2            # Automatic generation of k points, taking 
                       # into account the time-reversal symmetry only 

getwfk3   1            # Read the ground-state wavefunctions 
getddk3   2
                                              
tolvrs3   1.0d-20      # SCF stopping criterion 
                       



# Printing flags
prtden    1
prteig    0
prtwf     1
prtposcar 0
prtcif    0

pawecutdg  30
pawxcdev   0
