#input for non-centrosymmetric orthorhombic HfO2

ndtset    2

autoparal 1

#Crystal Def.
ntypat   3
natom    104
typat    16*1 16*2 72*3
znucl    57 42 8
acell 3*1

rprim
  2.67805954146304E+01 -6.72122716613259E-01  3.03955771574504E-02
 -6.66964139543651E-01  2.72680137955607E+01 -3.59851976676180E-01
  5.49449481485019E-03 -1.79642392617828E-01  1.35823222056670E+01

             xred      4.2929891824E-01  4.3835293355E-01  8.2824062172E-01
                       1.4720801105E-01  3.0103317874E-01  1.1390992791E-01
                       1.0414795436E-01  1.6895473110E-01  5.9552630793E-01
                       3.2489956042E-01  5.9173165055E-02  3.3071859557E-01
                       9.1335133797E-01  4.3658364121E-01  8.8080619203E-01
                       6.8410178620E-01  3.3862328809E-01  1.6614301818E-01
                       5.6596034446E-01  2.0048438327E-01  7.1223636212E-01
                       8.3074455300E-01  7.5681899938E-02  3.7253757915E-01
                       4.3187258722E-01  9.3874341955E-01  8.4409465251E-01
                       1.8759627820E-01  8.2651627767E-01  1.3987783197E-01
                       9.6192782227E-02  6.7128747826E-01  6.0028116712E-01
                       3.2658422708E-01  5.6795777011E-01  3.3142553191E-01
                       9.0723330437E-01  9.3951368634E-01  8.5987655686E-01
                       6.5749890615E-01  8.1662868101E-01  1.9815041270E-01
                       5.5568849313E-01  6.8431112512E-01  6.5613577101E-01
                       8.1044340073E-01  5.7388971756E-01  3.5045931716E-01
                       9.2707793775E-02  6.3675658064E-02  1.5415401558E-01
                       3.2543462998E-01  1.7063388428E-01  7.8884100555E-01
                       4.0175717270E-01  3.2649987952E-01  3.0693074851E-01
                       1.5766072740E-01  4.0207103368E-01  6.5457859000E-01
                       5.9906202538E-01  9.5376467396E-02  1.7916001939E-01
                       8.4806248204E-01  1.6756368636E-01  8.2745038203E-01
                       9.1869501733E-01  3.3308083233E-01  3.2393098410E-01
                       6.7012619752E-01  4.2639024229E-01  7.0529558581E-01
                       8.3569522946E-02  5.4397475098E-01  1.8073699854E-01
                       3.1928462412E-01  6.6403700369E-01  8.0931986879E-01
                       4.2364321774E-01  8.4429570959E-01  2.9871055495E-01
                       1.3732235857E-01  8.9912185658E-01  6.9407072714E-01
                       5.7321166856E-01  5.8694469225E-01  1.9948176957E-01
                       8.4134095794E-01  6.7474888411E-01  8.3223233599E-01
                       9.1009963518E-01  8.2796345268E-01  3.2244574369E-01
                       6.7478952258E-01  9.3623272554E-01  7.1711620333E-01
                       7.0089888356E-02  3.4630612724E-01  8.0196155472E-01
                       1.7562805411E-01  1.5464998584E-01  2.7950460803E-01
                       3.2662446564E-01  3.4913802935E-01  1.1764382730E-01
                       4.2684481673E-01  9.5620126845E-02  7.0018693001E-01
                       5.8283876126E-01  3.5497428928E-01  8.6103409059E-01
                       6.1224110791E-01  1.4809278909E-01  4.0157978324E-01
                       8.3944078263E-01  4.2007532014E-01  2.1359345690E-01
                       9.3289179019E-01  1.4572087855E-01  6.4672117609E-01
                       5.9543736227E-02  8.1355685794E-01  7.9265323092E-01
                       1.5501209758E-01  6.4606883933E-01  2.5943283024E-01
                       3.4337197239E-01  9.1349538685E-01  1.3836154486E-01
                       4.1035707864E-01  5.8843732728E-01  6.9181816524E-01
                       5.7377851681E-01  8.5353957819E-01  7.4749339496E-01
                       6.5729616988E-01  6.6047876038E-01  3.6486415193E-01
                       8.7216681115E-01  9.2788817868E-01  2.0610084752E-01
                       9.1914714803E-01  6.4647237021E-01  6.4511414985E-01
                       8.0175115557E-02  1.4383127567E-01  9.6658198342E-01
                       9.9780068817E-01  6.9783805103E-02  3.1449405654E-01
                       1.8152602087E-01  9.8305625296E-01  2.5328238140E-01
                       3.9760897930E-01  4.2060767640E-01  4.7271217580E-01
                       3.6780499458E-01  2.2145003962E-01  4.1335312360E-01
                       5.1648114061E-01  3.1051824593E-01  2.2684795507E-01
                       3.1623744973E-01  1.2443908280E-01  1.0789572602E-02
                       4.1502287290E-01  2.6844518223E-01  7.8338328547E-01
                       2.4938165411E-01  9.5745147680E-02  6.2435778685E-01
                       2.5880024453E-01  4.4367611541E-01  7.7574460931E-01
                       1.8333814838E-01  3.2757320424E-01  4.6289294879E-01
                       1.0629423139E-01  5.0046242383E-01  5.6607046399E-01
                       1.1218382258E-02  4.0595034818E-01  1.5582403773E-01
                       9.2050680578E-01  3.7835851890E-01  5.5041451304E-01
                       8.2185928104E-01  2.4366046399E-01  3.1021038606E-01
                       4.8080213393E-01  5.7940944470E-02  1.3512070486E-01
                       6.3804046418E-01  1.8463188928E-01  1.0251737448E+00
                       6.7955393798E-01  1.0065230508E+00  1.8338170795E-01
                       7.5401323929E-01  3.8967392380E-01  8.8641764419E-01
                       6.5283703827E-01  3.4650784244E-01  5.1432760252E-01
                       5.8450438484E-01  5.1557465706E-01  7.0814384737E-01
                       8.4971144912E-01  8.7740300998E-02  1.6235802553E-02
                       8.9108216779E-01  2.7100954748E-01  9.4183025720E-01
                       7.4304511082E-01  1.9551141851E-01  7.1787298492E-01
                       3.2845734926E-01  5.9663054598E-01  1.2195210719E-02
                       3.9678611453E-01  7.6528095496E-01  8.0548870779E-01
                       2.5160190112E-01  6.3284722473E-01  5.8707130209E-01
                       1.8336027917E-01  4.6911770875E-01  1.9915596225E-01
                       5.1933212637E-02  5.6064790433E-01  9.4578507584E-01
                       9.8393143746E-01  5.7096062162E-01  3.2611632544E-01
                       4.0027524779E-01  9.2625766485E-01  4.8763587166E-01
                       3.3935754632E-01  7.4825491918E-01  2.8510173553E-01
                       5.1133935444E-01  8.7002598789E-01  1.0625173019E-01
                       7.1412602091E-02 -3.4394531498E-03  6.4055456699E-01
                       2.3948387035E-01  9.1873091143E-01  8.3459034980E-01
                       1.7221208514E-01  8.3203939750E-01  4.9516028276E-01
                       6.6567412834E-01  5.0118938143E-01  2.0752836916E-01
                       4.8515943730E-01  6.1710261841E-01  3.7400275664E-01
                       5.8292468787E-01  6.7153955446E-01  1.0212467901E+00
                       8.3865768471E-01  5.8513542340E-01 -9.7548273410E-04
                       8.8651248855E-01  7.7623803148E-01  9.4772540208E-01
                       7.2941452572E-01  6.9582429897E-01  7.4542892448E-01
                       6.0355310863E-01  3.3069427077E-02  7.7971187234E-01
                       7.4069954562E-01  8.8776690500E-01  9.0359055766E-01
                       6.9683912057E-01  9.0014185503E-01  4.7917707848E-01
                       2.2650063069E-02  7.8973161960E-01  2.6533888029E-01
                       9.1216466252E-01  8.5885230899E-01  5.5889535880E-01
                       8.1943467132E-01  7.3982022020E-01  2.9236273730E-01
                       6.0274336744E-02 -4.0581669460E-02  8.8566411146E-03
                       2.2501486238E-01  2.5012080928E-01  7.9683982230E-01
                       1.0161969075E+00  2.5677076336E-01  3.2704062827E-01
                       7.7131852498E-01  5.0317627075E-01  6.3294622120E-01
                       2.0557754249E-01  7.1501098718E-01  8.7703675279E-01
                       5.2467313012E-01  7.9410584850E-01  4.0908746754E-01
                       4.8364234136E-01  4.9993268126E-01  1.1434456916E-01
                       7.9495809833E-01  1.0201659380E+00  6.7630483474E-01
 
kptopt   1
            ngfft         144     144      72
ngkpt    1 1 2
nshiftk 1
shiftk 
0.5 0.5 0.5
ecut       30
ecutsm   0.5
pawecutdg  30
pawxcdev   0
ixc      -116133
nband    420
diemac   4

# First SCF run       
#irdwfk1   1
nstep1    100
iscf1     7
tolvrs1   1.0E-20

#Refinement using tolwfr
nstep2    250
getwfk2   -1
iscf2     7
tolwfr2   1.0E-20

# Printing flags
prtden    1
prteig    0
prtwf     1
prtposcar 0
prtcif    1
