#input for non-centrosymmetric orthorhombic HfO2

ndtset    2

autoparal 1

#Crystal Def.
ntypat   3
natom    26
typat    4*1 4*2 18*3
znucl    57 42 8
acell 3*1

rprim
  1.37368827981414E+01 -8.95518420824791E-01  1.29510530129545E-01
 -9.37983035420164E-01  1.36275149256399E+01 -4.80170079763738E-02
  1.72958815220563E-01 -5.78706991898955E-02  1.34702154415404E+01

             xred      8.5847023448E-01  8.4838290052E-01  8.6152706819E-01
                       3.1343649735E-01  6.5532540858E-01  1.7610660659E-01
                       1.6584964842E-01  3.5885971458E-01  6.3584276004E-01
                       6.9334560525E-01  9.2769220991E-02  3.2547267705E-01
                       1.5976100351E-01  1.9037963813E-01  1.8033636135E-01
                       6.4441353987E-01  3.0199629015E-01  8.1435129021E-01
                       8.5338888616E-01  6.6113308603E-01  3.2768068697E-01
                       3.5490935688E-01  8.9774002398E-01  7.0536178088E-01
                       2.6500955421E-01  6.7508812963E-01  7.9521611488E-01
                       3.1690315754E-01  3.6202450003E-01  3.2845352661E-01
                       6.6821356413E-01  7.6937445046E-01  1.7833487382E-01
                       8.5052300053E-01  2.1656569532E-01  7.3610469565E-01
                      -6.9102614742E-03  6.8047208206E-01  1.0022614744E-01
                       2.8614533047E-01  9.9866877769E-01  1.5508258272E-01
                       8.1685813856E-01  8.3615053474E-01  5.0591256205E-01
                       6.8031948343E-01  5.4546945601E-01  7.9407331496E-01
                       5.5610867596E-01  9.5190163191E-01  8.4494779765E-01
                       1.0066828497E+00  1.8962919735E-01  3.9803231787E-01
                       7.2873400585E-01  4.4351556362E-01  3.7909906590E-01
                       2.0274441209E-01  3.5899715078E-01  9.9054244252E-01
                       4.6182013898E-01  2.1952014848E-01  6.5033166366E-01
                       1.5464667918E-01  1.5696058225E-02  7.3646983012E-01
                       1.0803055057E+00  6.1794566806E-01  4.3286455926E-01
                       5.9914914341E-01  2.6328234724E-01  5.2993443874E-02
                       4.2353341559E-01  8.6624749155E-01  4.6953698653E-01
                      -6.9523951191E-02  8.5725207352E-02  1.0835018029E+00
 
kptopt   1
            ngfft          72      75      75
ngkpt    2 2 2
nshiftk 1
shiftk 
0.5 0.5 0.5
ecut       30
ecutsm  0.5
pawecutdg  30
pawxcdev   0
ixc      -116133
nband    104
diemac   4

# First SCF run       
#irdwfk1   1
nstep1    100
iscf1     7
tolvrs1   1.0E-20

#Refinement using tolwfr
nstep2    250
getwfk2   -1
iscf2     7
tolwfr2   1.0E-20

# Printing flags
prtden    1
prteig    0
prtwf     1
prtposcar 0
prtcif    1
