#input for non-centrosymmetric orthorhombic HfO2

ndtset    1
autoparal 1

#Crystal Def.

nsym      1
ntypat   3
natom    26
typat    4*1 4*2 18*3
znucl    57 42 8

acell 3*1

rprim
  1.37368806474030E+01 -8.95440814213520E-01  1.29441606260459E-01
 -9.37909920399373E-01  1.36274549413680E+01 -4.79797705737895E-02
  1.72893237644080E-01 -5.78372915620734E-02  1.34701958765271E+01


xred  
  8.58475742576141E-01  8.48380382342480E-01  8.61517534121384E-01
  3.13433168831761E-01  6.55314467250721E-01  1.76105318400201E-01
  1.65848366226218E-01  3.58862216774939E-01  6.35841625953193E-01
  6.93340525373658E-01  9.27654337708532E-02  3.25461375870481E-01
  1.59756237398824E-01  1.90372473171171E-01  1.80340254432436E-01
  6.44414590824213E-01  3.02007317769806E-01  8.14351107392154E-01
  8.53384909917094E-01  6.61128323857170E-01  3.27676577141738E-01
  3.54920308676811E-01  8.97748323820800E-01  7.05367217726346E-01
  2.65021515055689E-01  6.75095871179910E-01  7.95224330728976E-01
  3.16900408913742E-01  3.62010683564218E-01  3.28456710366507E-01
  6.68208989211969E-01  7.69363648091781E-01  1.78332145178801E-01
  8.50529326292782E-01  2.16582425524464E-01  7.36113376799803E-01
 -6.91392823765624E-03  6.80462860433939E-01  1.00222926952410E-01
  2.86143332201967E-01  9.98661422538553E-01  1.55078401766719E-01
  8.16861817271937E-01  8.36151173430300E-01  5.05905264177111E-01
  6.80305423875186E-01  5.45481333969284E-01  7.94067472331035E-01
  5.56122753562302E-01  9.51914303964367E-01  8.44951798116610E-01
  1.00667753253424E+00  1.89620223798193E-01  3.98032620251639E-01
  7.28735493356054E-01  4.43510909392703E-01  3.79107738636217E-01
  2.02733354067982E-01  3.58995100534453E-01  9.90548632002738E-01
  4.61819446602461E-01  2.19522721838965E-01  6.50335826460044E-01
  1.54649917575348E-01  1.56970984928489E-02  7.36464416168219E-01
  1.08030800171879E+00  6.17943006303807E-01  4.32862326978394E-01
  5.99149182188798E-01  2.63300921865727E-01  5.29946917615355E-02
  4.23539633412620E-01  8.66249188166124E-01  4.69543083224166E-01
 -6.95284348192749E-02  8.57185416292127E-02  1.08350018669207E+00


kptopt   1
            ngfft          72      75      75

ngkpt    2 2 2
nshiftk 1
shiftk 
0.5 0.5 0.5

ecut       30
pawecutdg  30
pawxcdev   0
ixc      -116133
nband    104
diemac   4

ecutsm  0.5
nstep    100
iscf     7
tolvrs   1.0E-20
ionmov   2
optcell  2
dilatmx  1.04
tolmxf   1e-8
ntime    150
strtarget 5*0.0 -1.69946e-05



# Printing flags
prtden    1
prteig    0
prtwf     1
prtposcar 0
prtcif    1
