#input for non-centrosymmetric orthorhombic HfO2

ndtset    1
autoparal 1

#Crystal Def.

nsym      1
ntypat   3
natom    26
typat    4*1 4*2 18*3
znucl    57 42 8

acell 3*1

rprim
  1.32419165589974E+01  1.56911204571012E-01  1.19702596735505E-01
  1.61447758843095E-01  1.36416451766972E+01 -1.96859275216353E-01
  1.41424873536746E-01 -1.96128690560467E-01  1.36243311270410E+01

xred      
  8.81025697527396E-01  8.52593198738576E-01  8.66644962570143E-01
  3.37634841413756E-01  6.12536613905410E-01  1.96695162390110E-01
  1.40272765010046E-01  3.51034461695585E-01  6.41265972608743E-01
  6.48977631111626E-01  1.22919721953295E-01  3.16589382451078E-01
  1.35343887731845E-01  1.72892139833842E-01  1.85837814820555E-01
  6.60434429108312E-01  3.39846792114659E-01  8.08943163117699E-01
  8.47654355178560E-01  6.81334635778345E-01  3.25370289828686E-01
  3.67569704238631E-01  8.48549603917014E-01  7.07903612737899E-01
  3.01569302242282E-01  6.39124809730399E-01  8.17266731395726E-01
  3.18850392113249E-01  3.02900555635806E-01  3.34699260561877E-01
  6.68314107303353E-01  7.96873373102638E-01  1.62675091498786E-01
  8.52002700149902E-01  1.85150222274184E-01  7.57117698024256E-01
  1.36628469793988E-02  6.84039544321636E-01  1.15276941554269E-01
  2.79923488679924E-01  9.69301671886025E-01  1.50198848085541E-01
  8.08978055440424E-01  8.69786001663505E-01  4.93121195107599E-01
  7.67374351990552E-01  5.54144572587843E-01  7.64473770266364E-01
  5.57729112834848E-01  9.51198139383361E-01  8.23628843003322E-01
  9.77620004279443E-01  2.09746368588133E-01  3.99518481338851E-01
  7.02810964678144E-01  4.87720983372152E-01  3.62040040159315E-01
  1.65590767423244E-01  3.34548316626305E-01  1.00420838271216E+00
  4.82323052141035E-01  2.84637908893929E-01  6.46351211212890E-01
  1.68999760188385E-01  3.71417218372171E-03  7.26645051318987E-01
  1.07857649861077E+00  6.06003071052521E-01  4.46190151546689E-01
  5.72722651521457E-01  3.38727629986456E-01  3.98398159050251E-02
  4.25882210507843E-01  8.19258400919575E-01  4.71035288053131E-01
 -9.70059637936621E-02  8.42774633318833E-02  1.09486579736146E+00


kptopt   1
            ngfft          72      75      75

ngkpt    2 2 2
nshiftk 1
shiftk 
0.5 0.5 0.5

ecut       30
pawecutdg  30
pawxcdev   0
ixc      -116133
nband    104
diemac   4

ecutsm  0.5
nstep    100
iscf     7
tolvrs   1.0E-20
ionmov   2
optcell  2
dilatmx  1.04
tolmxf   1e-8
ntime    150
strtarget 5*0.0 1.69946e-05



# Printing flags
prtden    1
prteig    0
prtwf     1
prtposcar 0
prtcif    1
