#input for non-centrosymmetric orthorhombic HfO2

ndtset    1
autoparal 1

#Crystal Def.

nsym      1
ntypat   3
natom    26
typat    4*1 4*2 18*3
znucl    57 42 8

acell 3*1

rprim
  1.35366359852574E+01  1.26932705653028E-02  6.93767530550726E-01
  1.24045854988085E-02  1.34027195289800E+01 -1.86988909833485E-03
  6.86596419441860E-01 -1.82398547619004E-03  1.35476323476052E+01

             xred    
  8.17875704080462E-01  8.69582655939365E-01  8.71458910197249E-01
  3.95005849740856E-01  6.23891373176835E-01  1.64334141692669E-01
  1.81161540807284E-01  3.71215907127916E-01  6.26387007730593E-01
  6.05217457895484E-01  1.24066731859283E-01  3.35120814184926E-01
  1.89277014703562E-01  1.60849818473706E-01  1.19514933779358E-01
  7.02729640477017E-01  3.30981083170469E-01  7.95081952067289E-01
  8.10358009880887E-01  6.60982190223953E-01  3.80608522349950E-01
  2.97421419037028E-01  8.31677067004844E-01  7.04270000614936E-01
  3.06123137734908E-01  3.19056257702591E-01  3.05205670297839E-01
  9.02393711564141E-01  1.84362148141279E-01  7.13023910084619E-01
  6.95904770613106E-01  8.18669049663023E-01  1.93961859703863E-01
  9.81728341095321E-02  6.84783295434795E-01  7.85009866521533E-01
  9.60607331656230E-01  1.64191602112517E-01  2.32365285843721E-01
  5.27232129913377E-01  3.11570414049057E-01  6.40518183652025E-01
  4.04443215691647E-02  6.62150325527050E-01  2.71025892682666E-01
  4.72354180251624E-01  8.10788243837257E-01  8.59474868444890E-01
  3.39709607300326E-01  9.74898466417878E-01  2.00679279351526E-01
  3.01069206434285E-01  4.41810572208877E-02  5.73700701641414E-01
  6.98105314114891E-01  5.42473889830058E-01  9.27742129797795E-01
  6.61130466791928E-01  4.74736590832034E-01  2.99854807374856E-01
  2.49037901618367E-01  3.65550647612967E-01  9.62229141113361E-01
  7.49068709917341E-01  8.66159698864167E-01  5.37710307259360E-01
  3.66362172720591E-01  6.69420546783337E-01  5.15389320182524E-01
  6.34787020470602E-01  1.67645346987006E-01 -1.66946070397018E-02
  1.42605276321943E-01  7.35177127648642E-03 -8.34993723110788E-02
  8.55845270287912E-01  5.08763820757238E-01  5.85526472782620E-01

kptopt   1
ngkpt    2 2 2
nshiftk 1
shiftk 
0.5 0.5 0.5

ecut       30
pawecutdg  30
pawxcdev   0
ixc      -116133
nband    104
diemac   4

ecutsm  0.5
nstep    100
iscf     7
tolvrs   1.0E-20
ionmov   2
optcell  2
dilatmx  1.04
tolmxf   1e-8
ntime    150
strtarget 0.00 1*3.39893e-05 0.0 3*0.0



# Printing flags
prtden    1
prteig    0
prtwf     1
prtposcar 0
prtcif    1
