#input for non-centrosymmetric orthorhombic HfO2

ndtset    2

autoparal 1

#Crystal Def.
ntypat   3
natom    26
typat    4*1 4*2 18*3
znucl    57 42 8
acell 3*1

rprim
  1.35743481422850E+01  6.93416270460390E-01  0.00000000000000E+00
  7.15554347296408E-01  1.35696837558564E+01  0.00000000000000E+00
  0.00000000000000E+00  0.00000000000000E+00  1.33110799407212E+01

             xred      8.7147264473E-01  8.1880429632E-01  8.6950971799E-01
                       3.3500357332E-01  6.0480800212E-01  1.2410927656E-01
                       1.6499642668E-01  3.9519199788E-01  6.2410927656E-01
                       6.2852735527E-01  1.8119570368E-01  3.6950971799E-01
                       1.1989700139E-01  1.8930946509E-01  1.6149118191E-01
                       7.0531935626E-01  2.9795073318E-01  8.3106668093E-01
                       7.9468064374E-01  7.0204926682E-01  3.3106668093E-01
                       3.8010299861E-01  8.1069053491E-01  6.6149118191E-01
                       3.0632977466E-01  3.0386303818E-01  3.1930465332E-01
                       7.8659848361E-01  9.8664083401E-02  6.8348153031E-01
                       7.1340151639E-01  9.0133591660E-01  1.8348153031E-01
                       1.9367022534E-01  6.9613696182E-01  8.1930465332E-01
                       9.6342170989E-01  2.5075027408E-01  3.6775452865E-01
                       5.1690863787E-01  3.6603480434E-01  6.6732923857E-01
                      -1.6908637874E-02  6.3396519566E-01  1.6732923857E-01
                       5.3657829011E-01  7.4924972592E-01  8.6775452865E-01
                       2.3022064269E-01  9.6018799738E-01  1.6361071478E-01
                       2.6977935731E-01  3.9812002615E-02  6.6361071478E-01
                       8.5901695667E-01  4.7319116221E-01  8.1131105347E-01
                       6.4098304333E-01  5.2680883779E-01  3.1131105347E-01
                       2.0002302726E-01  3.3899315863E-01  9.7389514656E-01
                       9.2808489062E-01  6.9854475538E-01  5.4314461542E-01
                       2.9997697274E-01  6.6100684137E-01  4.7389514656E-01
                       5.7191510938E-01  3.0145524462E-01  4.3144615425E-02
                      -8.5085190333E-02  1.4391347197E-01  8.9936615426E-03
                       5.8508519033E-01  8.5608652803E-01  5.0899366154E-01
 
kptopt   1
            ngfft          72      75      75
ngkpt    2 2 2
nshiftk 1
shiftk 
0.5 0.5 0.5
ecut       30
ecutsm   0.5
pawecutdg  30
pawxcdev   0
ixc      -116133
nband    104
diemac   4

# First SCF run       
#irdwfk1   1
nstep1    100
iscf1     7
tolvrs1   1.0E-20

#Refinement using tolwfr
nstep2    250
getwfk2   -1
iscf2     7
tolwfr2   1.0E-20

# Printing flags
prtden    1
prteig    0
prtwf     1
prtposcar 0
prtcif    1
