#input for non-centrosymmetric orthorhombic HfO2

ndtset    1

autoparal 1

#Crystal Def.
ntypat   3
natom    26
typat    4*1 4*2 18*3
znucl    57 42 8
acell 3*1 
nsym 0

rprim
13.2911472   0.3732732   0.0000000
 0.3732732  13.7129708   0.0000000
 0.0000000   0.0000000  13.5356872

             xred      8.7838358506E-01  8.2276479448E-01  8.6937264369E-01
                       3.3928771033E-01  6.0815939939E-01  1.2482376841E-01
                       1.6071228967E-01  3.9184060061E-01  6.2482376841E-01
                       6.2161641494E-01  1.7723520552E-01  3.6937264369E-01
                       1.1957085723E-01  1.9022101119E-01  1.5978081640E-01
                       7.0168199250E-01  2.9307897920E-01  8.3204963011E-01
                       7.9831800750E-01  7.0692102080E-01  3.3204963011E-01
                       3.8042914277E-01  8.0977898881E-01  6.5978081640E-01
                       3.0394986299E-01  3.1138473171E-01  3.1891515601E-01
                       7.8810664982E-01  1.0190877266E-01  6.8519554098E-01
                       7.1189335018E-01  8.9809122734E-01  1.8519554098E-01
                       1.9605013701E-01  6.8861526829E-01  8.1891515601E-01
                       9.5741426207E-01  2.4510197481E-01  3.6154978883E-01
                       5.1130187510E-01  3.5599171330E-01  6.7055519663E-01
                      -1.1301875104E-02  6.4400828670E-01  1.7055519663E-01
                       5.4258573793E-01  7.5489802519E-01  8.6154978883E-01
                       2.3224299460E-01  9.6770323649E-01  1.6018986835E-01
                       2.6775700540E-01  3.2296763511E-02  6.6018986835E-01
                       8.5884390980E-01  4.7342231758E-01  8.1405178155E-01
                       6.4115609020E-01  5.2657768242E-01  3.1405178155E-01
                       2.0141593755E-01  3.4386094698E-01  9.7672478074E-01
                       9.2641671920E-01  7.0305047118E-01  5.4535015604E-01
                       2.9858406245E-01  6.5613905302E-01  4.7672478074E-01
                       5.7358328080E-01  2.9694952882E-01  4.5350156041E-02
                      -8.7030448280E-02  1.4136875958E-01  6.4428722624E-03
                       5.8703044828E-01  8.5863124042E-01  5.0644287226E-01

kptopt   1
ngkpt    2 2 2
nshiftk 1
shiftk 
0.5 0.5 0.5

ecut       30
pawecutdg  30
pawxcdev   0
ixc      -116133
nband    104
diemac   4
ecutsm   0.5

# First SCF run       
#irdwfk1   1
nstep    100
iscf     7
tolvrs   1.0E-20
ionmov   2
optcell  2
dilatmx  1.04
tolmxf   1e-10
ntime    150

# Printing flags
prtden    1
prteig    0
prtwf     1
prtposcar 0
prtcif    0
