#input for non-centrosymmetric orthorhombic HfO2

ndtset    1

autoparal 1

#Crystal Def.
ntypat   3
natom    26
typat    4*1 4*2 18*3
znucl    57 42 8

#nsym 0

acell 3*7.1547 Angstrom


xred
  8.69565944761761E-01  8.88705242064097E-01  8.24904291104407E-01
  3.69565944761761E-01  6.11294757935903E-01  1.75095708895593E-01
  1.39397695524861E-01  3.36756114839797E-01  6.22873214986730E-01
  6.39397695524861E-01  1.63243885160203E-01  3.77126785013270E-01
  1.62268043079625E-01  1.21254680063873E-01  1.90163687346159E-01
  6.62268043079625E-01  3.78745319936127E-01  8.09836312653841E-01
  8.27959862139626E-01  7.01376102565992E-01  2.88806568321149E-01
  3.27959862139626E-01  7.98623897434008E-01  7.11193431678851E-01
  3.24656470437051E-01  3.03520580727765E-01  3.10777316642871E-01
  8.24656470437051E-01  1.96479419272235E-01  6.89222683357129E-01
  6.78509883849457E-01  7.79844522692927E-01  1.00889578562677E-01
  1.78509883849457E-01  7.20155477307073E-01  8.99110421437323E-01
  9.84606377759345E-01  2.15549431919834E-01  3.53983602752959E-01
  4.84606377759345E-01  2.84450568080166E-01  6.46016397247041E-01
  4.35488940309121E-02  5.84420054995161E-01  2.66625612958421E-01
  5.43548894030912E-01  9.15579945004839E-01  7.33374387041579E-01
  3.54775504458367E-01  9.55339329835442E-01  2.36829723440028E-01
  1.74452756781067E-01 -1.41623974537172E-02  6.43226203659219E-01
  8.54775504458367E-01  5.44660670164558E-01  7.63170276559972E-01
  6.74452756781067E-01  5.14162397453717E-01  3.56773796340781E-01
  1.62410684369433E-01  2.25795540414672E-01  9.65889856539823E-01
  8.12107854818432E-01  8.62362053744914E-01  4.76661285435265E-01
  3.12107854818432E-01  6.37637946255086E-01  5.23338714564735E-01
  6.62410684369433E-01  2.74204459585328E-01  3.41101434601774E-02
 -9.25997200933502E-03 -6.95766108500083E-02  1.43995254046507E-01
  4.90740027990665E-01  5.69576610850008E-01  8.56004745953493E-01



kptopt   1
ngkpt    2 2 2
nshiftk 1
shiftk 
0.5 0.5 0.5

ecut       30
pawecutdg  30
pawxcdev   0
ixc      -116133
nband    104
diemac   4
ecutsm   0.5

# First SCF run       
#irdwfk1   1
nstep    100
iscf     7
tolvrs   1.0E-20
ionmov   2
optcell  0
dilatmx  1.04
tolmxf   1e-8
ntime    150

# Printing flags
prtden    1
prteig    0
prtwf     1
prtposcar 0
prtcif    0
