#input for non-centrosymmetric orthorhombic HfO2

ndtset    2

autoparal 1

#Crystal Def.
ntypat   3
natom    26
typat    4*1 4*2 18*3
znucl    57 42 8
acell 3*1

rprim
  1.35577998198739E+01 -3.35170762779115E-03 -5.78162172135472E-01
 -3.24916571782709E-03  1.33183082564516E+01  5.85123496174285E-04
 -5.75627124404852E-01  7.70260360113716E-04  1.35617237471306E+01

             xred      8.9422031035E-01  8.7523437958E-01  8.3665647582E-01
                       3.2007667799E-01  6.2981726460E-01  1.2548529298E-01
                       1.0623780809E-01  3.7472372068E-01  6.6353426171E-01
                       6.7923277358E-01  1.3006443836E-01  3.7574760140E-01
                       2.0277087387E-01  1.6847998699E-01  2.0384845615E-01
                       6.8947929714E-01  3.3900584297E-01  8.8121182562E-01
                       7.9715434751E-01  6.6927298780E-01  2.9704170026E-01
                       3.1068228323E-01  8.3817651510E-01  6.1876685678E-01
                       4.0054870589E-01  3.1652642553E-01  2.8489965393E-01
                       8.0612626803E-01  1.8056315527E-01  6.9531788735E-01
                       5.9904001993E-01  8.1668969494E-01  2.1683137450E-01
                       1.9560216257E-01  6.8034578094E-01  8.0503616939E-01
                       1.0250498817E+00  1.8814508123E-01  3.5823030645E-01
                       4.6167488266E-01  3.3806094410E-01  7.7110232387E-01
                      -2.6240036210E-02  6.8751298167E-01  1.4112531293E-01
                       5.3966828111E-01  8.3784037094E-01  7.2604978409E-01
                       2.0068733392E-01  9.5573706831E-01  7.1785313296E-02
                       1.6004244528E-01  2.5602187481E-02  7.0094517671E-01
                       8.4113230356E-01  5.2591967069E-01  7.9915590500E-01
                       7.9789255496E-01  4.5634571250E-01  4.2838277600E-01
                       1.3580172259E-01  3.3151836781E-01  1.0157939818E+00
                       8.6580361932E-01  8.3224585447E-01  4.8438502579E-01
                       2.5083105544E-01  6.3295887809E-01  4.6142663850E-01
                       7.4782467023E-01  1.3329607679E-01  3.8145894412E-02
                       6.4418364991E-01  4.9323352975E-01  1.0850741123E+00
                       3.5447610732E-01  9.9268308337E-01  4.1401989294E-01
 
kptopt   1
            ngfft          72      75      75
ngkpt    2 2 2
nshiftk 1
shiftk 
0.5 0.5 0.5
ecut       30
ecutsm  0.5
pawecutdg  30
pawxcdev   0
ixc      -116133
nband    104
diemac   4

# First SCF run       
#irdwfk1   1
nstep1    100
iscf1     7
tolvrs1   1.0E-20

#Refinement using tolwfr
nstep2    250
getwfk2   -1
iscf2     7
tolwfr2   1.0E-20

# Printing flags
prtden    1
prteig    0
prtwf     1
prtposcar 0
prtcif    1
