#input for non-centrosymmetric orthorhombic HfO2

ndtset    1
autoparal 1

#Crystal Def.

nsym      1
ntypat   3
natom    26
typat    4*1 4*2 18*3
znucl    57 42 8

acell 3*1

rprim
  1.35577994344304E+01 -3.35136065078298E-03 -5.78162141830343E-01
 -3.24880163851377E-03  1.33183087321857E+01  5.85663315427947E-04
 -5.75627070972809E-01  7.70794343484205E-04  1.35617239019356E+01

xred      
  8.94220309077549E-01  8.75234413745757E-01  8.36656480006773E-01
  3.20076651591573E-01  6.29817270947608E-01  1.25485261168729E-01
  1.06237792593606E-01  3.74723797191906E-01  6.63534251598549E-01
  6.79232844352723E-01  1.30064404194094E-01  3.75747616526414E-01
  2.02770918213980E-01  1.68479957008563E-01  2.03848449294656E-01
  6.89479315387770E-01  3.39005889861134E-01  8.81211867885147E-01
  7.97154333999825E-01  6.69272981423263E-01  2.97041715818128E-01
  3.10682253499515E-01  8.38176499253174E-01  6.18766812325894E-01
  4.00548770100939E-01  3.16526373305613E-01  2.84899600638199E-01
  8.06126246933056E-01  1.80563174689786E-01  6.95317918521208E-01
  5.99040005942219E-01  8.16689684572140E-01  2.16831348797324E-01
  1.95602144031726E-01  6.80345802688034E-01  8.05036171606594E-01
  1.02504995662925E+00  1.88145053693166E-01  3.58230339941362E-01
  4.61674872046069E-01  3.38060955204465E-01  7.71102431509569E-01
 -2.62400471327142E-02  6.87513017330566E-01  1.41125329760524E-01
  5.39668268461203E-01  8.37840290540936E-01  7.26049715707503E-01
  2.00687283848996E-01  9.55737058504379E-01  7.17852902795766E-02
  1.60042465721234E-01  2.56021962036568E-02  7.00945134377066E-01
  8.41132330118360E-01  5.25919693287249E-01  7.99155905867273E-01
  7.97892526138759E-01  4.56345698877870E-01  4.28382796776058E-01
  1.35801735793855E-01  3.31518353660655E-01  1.01579398936900E+00
  8.65803601420394E-01  8.32245818200894E-01  4.84385053628556E-01
  2.50830903103719E-01  6.32958880641658E-01  4.61426610190703E-01
  7.47824708740295E-01  1.33296143242993E-01  3.81459502291715E-02
  6.44183684203452E-01  4.93233576405920E-01  1.08507413166510E+00
  3.54476125196960E-01  9.92683015271534E-01  4.14019826516614E-01



kptopt   1
            ngfft          72      75      75

ngkpt    2 2 2
nshiftk 1
shiftk 
0.5 0.5 0.5

ecut       30
pawecutdg  30
pawxcdev   0
ixc      -116133
nband    104
diemac   4

ecutsm  0.5
nstep    100
iscf     7
tolvrs   1.0E-20
ionmov   2
optcell  2
dilatmx  1.04
tolmxf   1e-8
ntime    150
strtarget 4*0.0 1.69946e-05 0.0 



# Printing flags
prtden    1
prteig    0
prtwf     1
prtposcar 0
prtcif    1
