#input for KTaO3

ndtset    3

autoparal 1

#Crystal Def.
ntypat   3
natom    26
typat    4*1 4*2 18*3
znucl    57 42 8
acell 3*1


rprim
  1.35083988913365E+01  1.32376630121005E-02  6.99279166241147E-01
  1.29599923065027E-02  1.33268166978932E+01 -1.45570102606941E-03
  6.88389229303034E-01 -1.35855223267498E-03  1.35913725630594E+01

             xred      8.1834069505E-01  8.6932751438E-01  8.7140734573E-01
                       3.9509898555E-01  6.2404606117E-01  1.6407215892E-01
                       1.8056596376E-01  3.7103554250E-01  6.2592065937E-01
                       6.0520331505E-01  1.2428465913E-01  3.3530500414E-01
                       1.8928293370E-01  1.6122927310E-01  1.1909724773E-01
                       7.0172802097E-01  3.3080231052E-01  7.9542248514E-01
                       8.1035873339E-01  6.6159758414E-01  3.8098131396E-01
                       2.9842856677E-01  8.3140428440E-01  7.0389046553E-01
                       3.0534202152E-01  3.1922973088E-01  3.0503321928E-01
                       9.0180698389E-01  1.8348991431E-01  7.1352614626E-01
                       6.9713279913E-01  8.1894787313E-01  1.9400217632E-01
                       9.8783697971E-02  6.8379066946E-01  7.8428284437E-01
                       9.5989784733E-01  1.6432312913E-01  2.3095574407E-01
                       5.2600160593E-01  3.1154043713E-01  6.4133418617E-01
                       4.1383671766E-02  6.6212079611E-01  2.7295642018E-01
                       4.7339006047E-01  8.1114944889E-01  8.5891729507E-01
                       3.3945393795E-01  9.7384630082E-01  2.0039988968E-01
                       3.0015873985E-01  4.3998775868E-02  5.7226124595E-01
                       6.9859500372E-01  5.4246077910E-01  9.2906632259E-01
                       6.6155816479E-01  4.7389413554E-01  3.0011713307E-01
                       2.4953686007E-01  3.6702357474E-01  9.6267567843E-01
                       7.4842892964E-01  8.6796399390E-01  5.3721464097E-01
                       3.6784026019E-01  6.6856434043E-01  5.1565966769E-01
                       6.3365830951E-01  1.6690917253E-01 -1.6850406492E-02
                       1.4352584086E-01  7.6315313734E-03 -8.4137393156E-02
                       8.5449805116E-01  5.0938816737E-01  5.8648850902E-01
 
nshiftk 1
shiftk 
0.5 0.5 0.5
#chksymbreak 0
kptopt   1
ngkpt    2 2 2

ecut 30
ixc      -116133
nband    104
nstep    150
diemac   4


# Data set 1 - Refinement of already computed GS WFs       
irdwfk1   0
irdden1   0
iscf1     7
tolvrs1   1.0E-20
nstep1    100

# Data Set 2: Response Function calculation : d/dk 
rfelfd2    2 
rfdir2     1    1    1 

nqpt2      1 
qpt2       0.0  0.0  0.0  

getwfk2   -1 
getden2   -1 

kptopt2    2 

iscf2     -3 

tolwfr2    1.0d-22 

# Data set 3 : Response Function calculation - electric field perturbation, phonons, and strain

rfphon3   1            # Will consider phonon-type perturbation 
rfelfd3   3            # Electric Field
rfstrs3   3            # Strains

rfdir3    1   1   1    # Along all reduced coordinate axis 
rfatpol3  1   26        # All the atoms will be displaced 

nqpt3     1            # One wavevector is to be considered 
qpt3      0.0 0.0 0.0  # This wavevector is q=0 (Gamma) 

kptopt3   2            # Automatic generation of k points, taking 
                       # into account the time-reversal symmetry only 

getwfk3   1            # Read the ground-state wavefunctions 
getddk3   2
                                              
tolvrs3   1.0d-20      # SCF stopping criterion 
                       



# Printing flags
prtden    1
prteig    0
prtwf     1
prtposcar 0
prtcif    0

ecutsm  0.5
            ngfft          72      75      75
pawecutdg  30
pawxcdev   0
