#input for KTaO3

ndtset    3

autoparal 1

#Crystal Def.
ntypat   3
natom    26
typat    4*1 4*2 18*3
znucl    57 42 8
acell 3*1


rprim
  1.36036568594277E+01 -2.47423878003800E-03 -7.15055662914528E-01
 -2.43567681459035E-03  1.32196627565116E+01 -1.25950816927674E-04
 -7.12789628749943E-01 -8.45298896405596E-06  1.36036261696814E+01

             xred      8.9572236608E-01  8.7581563121E-01  8.3485153197E-01
                       3.1871849117E-01  6.3132236265E-01  1.2944856604E-01
                       1.0465952718E-01  3.7550347804E-01  6.6534139710E-01
                       6.8072435243E-01  1.3129448471E-01  3.7157003391E-01
                       2.0175637004E-01  1.6905724229E-01  2.0583685372E-01
                       6.8939069615E-01  3.3807017172E-01  8.8015238427E-01
                       7.9818554153E-01  6.6917771726E-01  2.9490750893E-01
                       3.1064784739E-01  8.3768251011E-01  6.1972193495E-01
                       4.0120528401E-01  3.1735969999E-01  2.8660923183E-01
                       8.0384273397E-01  1.8024619410E-01  6.9354963524E-01
                       5.9855371467E-01  8.1716092314E-01  2.1487178542E-01
                       1.9745920430E-01  6.8032867356E-01  8.0652796000E-01
                       1.0261498026E+00  1.8952649872E-01  3.5790052646E-01
                       4.6108861514E-01  3.3620719789E-01  7.6939899129E-01
                      -2.7165180024E-02  6.8828654511E-01  1.4152651772E-01
                       5.4007657087E-01  8.3576306239E-01  7.2764714149E-01
                       1.9741186311E-01  9.5671389923E-01  7.0779144825E-02
                       1.6203162523E-01  2.7015860877E-02  7.0000394055E-01
                       8.3924552639E-01  5.2686077107E-01  8.0066144942E-01
                       8.0106881813E-01  4.5706295480E-01  4.2992984356E-01
                       1.3466838362E-01  3.3398502491E-01  1.0176088345E+00
                       8.6698865040E-01  8.3421932024E-01  4.8243170692E-01
                       2.4755555989E-01  6.3046026233E-01  4.6370731987E-01
                       7.5111901086E-01  1.3017786763E-01  3.5609261930E-02
                       6.4464406227E-01  4.9027104092E-01  1.0856447485E+00
                       3.5425056258E-01  9.9043060506E-01  4.1376174958E-01
 
nshiftk 1
shiftk 
0.5 0.5 0.5
#chksymbreak 0
kptopt   1
ngkpt    2 2 2

ecut 30
ixc      -116133
nband    104
nstep    150
diemac   4


# Data set 1 - Refinement of already computed GS WFs       
irdwfk1   0
irdden1   0
iscf1     7
tolvrs1   1.0E-20
nstep1    100

# Data Set 2: Response Function calculation : d/dk 
rfelfd2    2 
rfdir2     1    1    1 

nqpt2      1 
qpt2       0.0  0.0  0.0  

getwfk2   -1 
getden2   -1 

kptopt2    2 

iscf2     -3 

tolwfr2    1.0d-22 

# Data set 3 : Response Function calculation - electric field perturbation, phonons, and strain

rfphon3   1            # Will consider phonon-type perturbation 
rfelfd3   3            # Electric Field
rfstrs3   3            # Strains

rfdir3    1   1   1    # Along all reduced coordinate axis 
rfatpol3  1   26        # All the atoms will be displaced 

nqpt3     1            # One wavevector is to be considered 
qpt3      0.0 0.0 0.0  # This wavevector is q=0 (Gamma) 

kptopt3   2            # Automatic generation of k points, taking 
                       # into account the time-reversal symmetry only 

getwfk3   1            # Read the ground-state wavefunctions 
getddk3   2
                                              
tolvrs3   1.0d-20      # SCF stopping criterion 
                       



# Printing flags
prtden    1
prteig    0
prtwf     1
prtposcar 0
prtcif    0

ecutsm  0.5
            ngfft          72      75      75
pawecutdg  30
pawxcdev   0
