#input for non-centrosymmetric orthorhombic HfO2

ndtset    2

autoparal 1

#Crystal Def.
ntypat   3
natom    26
typat    4*1 4*2 18*3
znucl    57 42 8
acell 3*1

rprim
  1.35539902673845E+01  3.03188968339559E-01  1.09328770776401E-02
  3.05726953605361E-01  1.35888189118448E+01  1.94648064179545E-01
  1.46360481467932E-02  1.95809903633789E-01  1.34149334267115E+01

             xred      8.5115379072E-01  9.1109479678E-01  8.4285205544E-01
                       3.3609633709E-01  6.6590537470E-01  1.7010415115E-01
                       1.2825802342E-01  3.4280197445E-01  6.0226988711E-01
                       6.4708528464E-01  1.6273302390E-01  3.3942828764E-01
                       1.9022668581E-01  1.4239090431E-01  1.5863263042E-01
                       6.6410128829E-01  3.6124233797E-01  7.9431308083E-01
                       8.0123831749E-01  6.8623787626E-01  3.7798459714E-01
                       3.1469075665E-01  8.0249930208E-01  7.0719937670E-01
                       3.2286216368E-01  3.3018385392E-01  2.8625569605E-01
                       8.4006707282E-01  1.9281571512E-01  6.5585985988E-01
                       7.5968728014E-01  8.2003419805E-01  1.6857511913E-01
                       1.6925536468E-01  6.4224236633E-01  8.2691067714E-01
                       9.9285587323E-01  1.8898487903E-01  3.0859596526E-01
                       4.8144940771E-01  2.8932329200E-01  6.4498533445E-01
                       4.3470275292E-02  6.1939962976E-01  3.7608679384E-01
                       4.9274059325E-01  8.7427777636E-01  8.5610267554E-01
                       3.9523404337E-01  9.8617172386E-01  2.4379025616E-01
                       1.6323196398E-01 -5.6459531202E-03  6.4027525323E-01
                       8.1808982788E-01  5.4372685670E-01  6.9170998780E-01
                       6.6412698547E-01  4.9570231089E-01  3.2902538755E-01
                       1.7036928843E-01  2.6526765457E-01  9.4001365740E-01
                       7.3106816452E-01  8.7304966318E-01  5.2994384773E-01
                       3.9679480398E-01  6.8517756379E-01  5.0785096332E-01
                       7.1759752299E-01  1.9278589888E-01 -8.4691821081E-03
                       1.0929191072E-01 -8.3809773547E-02  6.5749303471E-02
                       5.3495697372E-01  5.1540675375E-01  9.4395433773E-01
 
kptopt   1
            ngfft          72      75      75
ngkpt    2 2 2
nshiftk 1
shiftk 
0.5 0.5 0.5
ecut       30
ecutsm  0.5
pawecutdg  30
pawxcdev   0
ixc      -116133
nband    104
diemac   4

# First SCF run       
#irdwfk1   1
nstep1    100
iscf1     7
tolvrs1   1.0E-20

#Refinement using tolwfr
nstep2    250
getwfk2   -1
iscf2     7
tolwfr2   1.0E-20

# Printing flags
prtden    1
prteig    0
prtwf     1
prtposcar 0
prtcif    1
