#input for non-centrosymmetric orthorhombic HfO2

ndtset    1
autoparal 1

#Crystal Def.

nsym     1
ntypat   3
natom    26
typat    4*1 4*2 18*3
znucl    57 42 8

acell 3*1

rprim
  1.32759031473263E+01  7.24883621768164E-02 -3.74166041019094E-01
  5.28653792486694E-02  1.36022224152343E+01  5.58182468096960E-01
 -3.76776789265793E-01  5.84536255651199E-01  1.36055772659733E+01

             xred   
  8.81814888050915E-01  9.08073493884902E-01  8.35804170977750E-01
  3.46226730531591E-01  6.45864625580055E-01  1.88721538439535E-01
  1.23288526825760E-01  3.41586424410012E-01  6.09113846714414E-01
  6.31173117028114E-01  1.73490270112828E-01  3.84034367635845E-01
  1.65356003611625E-01  1.16437876478419E-01  1.91612167477604E-01
  6.57847328379512E-01  3.83303737917986E-01  8.10572447929652E-01
  8.26588343865017E-01  7.06074291259885E-01  3.01136652048884E-01
  3.32272832592174E-01  8.02729638363552E-01  7.02956719340760E-01
  3.18806594575867E-01  3.13666272020560E-01  2.73164308063792E-01
  8.21915182475556E-01  2.04960406547486E-01  6.72458231623123E-01
  6.88013675563389E-01  7.98467224580583E-01  9.60601253287850E-02
  1.81353212723335E-01  7.29281975906061E-01  8.91898281767673E-01
  9.79355116307031E-01  1.94718628331415E-01  3.31416532956232E-01
  4.72077240149008E-01  2.98185035992735E-01  6.46229107748463E-01
  3.27826698470469E-02  5.55789570556103E-01  3.19099268846408E-01
  5.51698606377602E-01  9.17107356359291E-01  7.21337380973200E-01
  3.81500710555297E-01  9.67580580417883E-01  2.62375133565055E-01
  1.76485752595672E-01 -6.52620430761952E-03  6.22597602288937E-01
  8.56347300983619E-01  5.40083468095146E-01  7.64180299958292E-01
  6.55458627490517E-01  5.24483350801986E-01  3.53368502965094E-01
  1.33021304011616E-01  1.86705168901742E-01  9.50159305598045E-01
  8.09866631388496E-01  8.59890051937723E-01  4.78146395207706E-01
  3.14785003645587E-01  6.44060964230933E-01  5.29233979292620E-01
  6.86979451363532E-01  2.41733082763839E-01  2.16107432232893E-02
  3.11923041058484E-02 -1.12251790238612E-01  1.68084503731883E-01
  4.93792844986855E-01  5.64504499098538E-01  8.74628386305729E-01

kptopt   1
ngkpt    2 2 2
nshiftk 1
shiftk 
0.5 0.5 0.5

ecut       30
pawecutdg  30
pawxcdev   0
ixc      -116133
nband    104
diemac   4

ecutsm  0.5
nstep    100
iscf     7
tolvrs   1.0E-20
ionmov   2
optcell  2
dilatmx  1.04
tolmxf   1e-8
ntime    150
strtarget 3*0.0 0.0 -3.39893e-05 0.0



# Printing flags
prtden    1
prteig    0
prtwf     1
prtposcar 0
prtcif    1
