#input for non-centrosymmetric orthorhombic HfO2

ndtset    1

autoparal 1

#Crystal Def.
ntypat   3
natom    26
typat    4*1 4*2 18*3
znucl    57 42 8
acell 3*1
nsym 0

rprim
  1.33127179000526E+01  0.00000000000000E+00  0.00000000000000E+00
  0.00000000000000E+00  1.35742928978177E+01 -6.96940780534539E-01
  0.00000000000000E+00 -7.09346939730938E-01  1.35716994654795E+01

xred
  8.75978739425677E-01  8.35036971096333E-01  8.95245107094027E-01
  3.75978739425678E-01  6.64963028903668E-01  1.04754892905972E-01
  1.30309244231505E-01  3.71732871854877E-01  6.81568190682479E-01
  6.30309244231505E-01  1.28267128145123E-01  3.18431809317520E-01
  1.68696765733247E-01  2.05134343444250E-01  2.02560467788332E-01
  6.68696765733247E-01  2.94865656555750E-01  7.97439532211667E-01
  8.38563180964828E-01  6.19694912917965E-01  3.10783306321321E-01
  3.38563180964828E-01  8.80305087082036E-01  6.89216693678678E-01
  3.16163109089867E-01  2.86034694228961E-01  4.02076999294822E-01
  8.16163109089867E-01  2.13965305771040E-01  5.97923000705177E-01
  6.80841287898542E-01  8.06028546961938E-01  1.95756067852620E-01
  1.80841287898542E-01  6.93971453038062E-01  8.04243932147379E-01
  9.56541000338648E-01  7.17576017507623E-02  1.98033353372430E-01
  4.56541000338648E-01  4.28242398249238E-01  8.01966646627569E-01
  2.61143505543817E-02  6.99950797077151E-01  1.61224403362852E-01
  5.26114350554382E-01  8.00049202922849E-01  8.38775596637147E-01
  3.32594835781774E-01  1.01678189036324E+00  1.34510516320992E-01
  1.32374813084777E-01  3.68317633941327E-02  7.50906902880898E-01
  8.32594835781774E-01  4.83218109636762E-01  8.65489483679007E-01
  6.32374813084777E-01  4.63168236605868E-01  2.49093097119101E-01
  1.88813470609519E-01  3.58891174081773E-01  1.02742460343986E+00
  8.36790427776311E-01  7.30046229552657E-01  5.39872047886810E-01
  3.36790427776311E-01  7.69953770447343E-01  4.60127952113189E-01
  6.88813470609519E-01  1.41108825918227E-01 -2.74246034398586E-02
  9.91218774511413E-01  4.14790120436831E-01  3.55807858504389E-01
  4.91218774511413E-01  1.08520987956317E+00  6.44192141495610E-01


kptopt   1
ngkpt    2 2 2
nshiftk 1
shiftk 
0.5 0.5 0.5

ecut       30
pawecutdg  30
pawxcdev   0
ixc      -116133
nband    104
diemac   4
ecutsm   0.5

# First SCF run       
#irdwfk1   1
nstep    100
iscf     7
tolvrs   1.0E-20
ionmov   2
optcell  2
dilatmx  1.04
tolmxf   1e-10
ntime    150

# Printing flags
prtden    1
prteig    0
prtwf     1
prtposcar 0
prtcif    0
