#input for KTaO3

ndtset    3

autoparal 1

#Crystal Def.
ntypat   3
natom    26
typat    4*1 4*2 18*3
znucl    57 42 8
acell 3*1


rprim
  1.35867074316731E+01 -8.22414174547862E-01  2.98743629129293E-03
 -8.46194355452552E-01  1.35996122921867E+01  2.49236032229843E-03
  1.86151774604557E-03  2.74466949490354E-03  1.32979805943917E+01

             xred      8.3310194251E-01  8.9608059153E-01  8.7679037446E-01
                       3.6726820086E-01  6.8395410258E-01  1.3158266436E-01
                       1.3278820135E-01  3.1622269500E-01  6.3128747198E-01
                       6.6694364636E-01  1.0402592592E-01  3.7673427955E-01
                       2.0753596220E-01  2.0255584284E-01  1.6871190734E-01
                       6.2146089491E-01  3.1071991469E-01  8.3810402766E-01
                       8.7855033554E-01  6.8922919549E-01  3.3844359197E-01
                       2.9254406164E-01  7.9745563572E-01  6.6901270810E-01
                       2.8903138817E-01  4.0338200657E-01  3.1584190764E-01
                       8.0802784750E-01  1.9667959837E-01  6.8098311747E-01
                       6.9192985678E-01  8.0315749221E-01  1.8092729029E-01
                       2.1092947467E-01  5.9661743008E-01  8.1623602778E-01
                       1.0184427047E+00  1.3447751215E-01  3.3363971161E-01
                       4.6557626113E-01  2.4668120934E-01  6.3096138256E-01
                       3.4440699730E-02  7.5343076785E-01  1.3121151641E-01
                       4.8120556028E-01  8.6617717314E-01  8.3402057390E-01
                       3.5939100828E-01  1.0292558319E+00  1.9071410942E-01
                       1.4048801494E-01 -2.9308561826E-02  6.8963890181E-01
                       7.3395951829E-01  5.4010160548E-01  8.3447302298E-01
                       7.6605043092E-01  4.5984750128E-01  3.3503910196E-01
                       7.2074893251E-02  1.9478587282E-01  9.5741939201E-01
                       8.0048641272E-01  8.3723022585E-01  5.2648866424E-01
                       4.2828748528E-01  8.0441475318E-01  4.5793902600E-01
                       6.9957924572E-01  1.6307444503E-01  2.6501559844E-02
                       4.1552266601E-01  3.5629024257E-01  9.8859654697E-01
                       1.0843832861E+00  6.4346099019E-01  4.8870112169E-01
 
nshiftk 1
shiftk 
0.5 0.5 0.5
#chksymbreak 0
kptopt   1
ngkpt    2 2 2

ecut 30
ixc      -116133
nband    104
nstep    150
diemac   4


# Data set 1 - Refinement of already computed GS WFs       
irdwfk1   0
irdden1   0
iscf1     7
tolvrs1   1.0E-20
nstep1    100

# Data Set 2: Response Function calculation : d/dk 
rfelfd2    2 
rfdir2     1    1    1 

nqpt2      1 
qpt2       0.0  0.0  0.0  

getwfk2   -1 
getden2   -1 

kptopt2    2 

iscf2     -3 

tolwfr2    1.0d-22 

# Data set 3 : Response Function calculation - electric field perturbation, phonons, and strain

rfphon3   1            # Will consider phonon-type perturbation 
rfelfd3   3            # Electric Field
rfstrs3   3            # Strains

rfdir3    1   1   1    # Along all reduced coordinate axis 
rfatpol3  1   26        # All the atoms will be displaced 

nqpt3     1            # One wavevector is to be considered 
qpt3      0.0 0.0 0.0  # This wavevector is q=0 (Gamma) 

kptopt3   2            # Automatic generation of k points, taking 
                       # into account the time-reversal symmetry only 

getwfk3   1            # Read the ground-state wavefunctions 
getddk3   2
                                              
tolvrs3   1.0d-20      # SCF stopping criterion 
                       



# Printing flags
prtden    1
prteig    0
prtwf     1
prtposcar 0
prtcif    0

ecutsm  0.5
            ngfft          72      75      75
pawecutdg  30
pawxcdev   0
