#input for KTaO3

ndtset    3

autoparal 1

#Crystal Def.
ntypat   3
natom    26
typat    4*1 4*2 18*3
znucl    57 42 8
acell 3*1


rprim
  1.35863951873283E+01 -7.02701681796718E-01  3.94039489571191E-03
 -7.26728581967957E-01  1.35938518750687E+01  3.83556920908479E-03
  2.93652167578250E-03  4.15756448310704E-03  1.32664393609566E+01

             xred      8.3468371376E-01  8.9549972166E-01  8.7594188877E-01
                       3.7091894627E-01  6.8169646611E-01  1.3118408529E-01
                       1.2927421697E-01  3.1850280640E-01  6.3083594766E-01
                       6.6541074125E-01  1.0466531648E-01  3.7591925349E-01
                       2.0582741793E-01  2.0235180405E-01  1.6875256837E-01
                       6.2019897134E-01  3.1088611267E-01  8.3801340721E-01
                       8.7987651529E-01  6.8914123147E-01  3.3833904920E-01
                       2.9424864080E-01  7.9752728253E-01  6.6915715238E-01
                       2.8642526553E-01  4.0196713430E-01  3.1636783994E-01
                       8.0656443638E-01  1.9613931499E-01  6.8059758575E-01
                       6.9342486139E-01  8.0382214656E-01  1.8061774111E-01
                       2.1338205819E-01  5.9803632947E-01  8.1704924535E-01
                       1.0173391633E+00  1.3498902078E-01  3.3327777650E-01
                       4.6402714056E-01  2.4882645407E-01  6.3113214120E-01
                       3.6113338998E-02  7.5171433617E-01  1.3142884613E-01
                       4.8217725181E-01  8.6591178792E-01  8.3373053136E-01
                       3.5880242195E-01  1.0273184600E+00  1.8980298164E-01
                       1.4112111214E-01 -2.7406536160E-02  6.8819931219E-01
                       7.3024893458E-01  5.3973627537E-01  8.3591257224E-01
                       7.6972751959E-01  4.6033487049E-01  3.3610663302E-01
                       7.1567915375E-02  1.9687014957E-01  9.5649092715E-01
                       8.0005663229E-01  8.3852378830E-01  5.2657377663E-01
                       4.2888188009E-01  8.0161037589E-01  4.5721558517E-01
                       6.9989340965E-01  1.6168230923E-01  2.6554959672E-02
                       4.1449161488E-01  3.5529241639E-01  9.9028426508E-01
                       1.0853158796E+00  6.4436062526E-01  4.9051392748E-01
 
nshiftk 1
shiftk 
0.5 0.5 0.5
#chksymbreak 0
kptopt   1
ngkpt    2 2 2

ecut 30
ixc      -116133
nband    104
nstep    150
diemac   4


# Data set 1 - Refinement of already computed GS WFs       
irdwfk1   0
irdden1   0
iscf1     7
tolvrs1   1.0E-20
nstep1    100

# Data Set 2: Response Function calculation : d/dk 
rfelfd2    2 
rfdir2     1    1    1 

nqpt2      1 
qpt2       0.0  0.0  0.0  

getwfk2   -1 
getden2   -1 

kptopt2    2 

iscf2     -3 

tolwfr2    1.0d-22 

# Data set 3 : Response Function calculation - electric field perturbation, phonons, and strain

rfphon3   1            # Will consider phonon-type perturbation 
rfelfd3   3            # Electric Field
rfstrs3   3            # Strains

rfdir3    1   1   1    # Along all reduced coordinate axis 
rfatpol3  1   26        # All the atoms will be displaced 

nqpt3     1            # One wavevector is to be considered 
qpt3      0.0 0.0 0.0  # This wavevector is q=0 (Gamma) 

kptopt3   2            # Automatic generation of k points, taking 
                       # into account the time-reversal symmetry only 

getwfk3   1            # Read the ground-state wavefunctions 
getddk3   2
                                              
tolvrs3   1.0d-20      # SCF stopping criterion 
                       



# Printing flags
prtden    1
prteig    0
prtwf     1
prtposcar 0
prtcif    0

ecutsm  0.5
            ngfft          72      75      75
pawecutdg  30
pawxcdev   0
