#input for non-centrosymmetric orthorhombic HfO2

ndtset    1
autoparal 1

#Crystal Def.

nsym      1
ntypat   3
natom    26
typat    4*1 4*2 18*3
znucl    57 42 8

acell 3*1

rprim
  1.33128455325703E+01 -3.72771106165850E-05 -1.72132801106861E-03
 -1.58785134216225E-04  1.35745666767448E+01 -6.90868408659933E-01
 -1.65064126775036E-03 -7.15527183997469E-01  1.35714116102068E+01

xred      
8.7608623747E-01  8.3512293450E-01  8.9535481371E-01
3.7588572381E-01  6.6506474327E-01  1.0487686801E-01
1.3033898428E-01  3.7201914032E-01  6.8144353725E-01
6.3031356052E-01  1.2857102965E-01  3.1829578291E-01
1.6867079336E-01  2.0540630397E-01  2.0256694056E-01
6.6875380571E-01  2.9518413703E-01  7.9747318008E-01
8.3844620645E-01  6.1958679998E-01  3.1072794486E-01
3.3867954989E-01  8.8021124043E-01  6.8917011991E-01
3.1617437060E-01  2.8651526460E-01  4.0208153684E-01
8.1611822449E-01  2.1451632693E-01  5.9791084477E-01
6.8089011669E-01  8.0606771196E-01  1.9606241795E-01
1.8080764063E-01  6.9400336040E-01  8.0458225748E-01
9.5644539970E-01  7.2011608926E-02  1.9744403347E-01
4.5664850511E-01  4.2850382991E-01  8.0152656119E-01
2.6172737286E-02  7.0010216753E-01  1.6157900894E-01
5.2607260736E-01  8.0020871823E-01  8.3908854178E-01
3.3256858804E-01  1.0168404999E+00  1.3517436853E-01
1.3232224029E-01  3.6575797457E-02  7.5055365481E-01
8.3269564350E-01  4.8328464617E-01  8.6615044441E-01
6.3242253824E-01  4.6291185292E-01  2.4867850701E-01
1.8929007417E-01  3.5873687322E-01  1.0271217650E+00
8.3663239765E-01  7.2903469727E-01  5.4015038420E-01
3.3675619405E-01  7.6892807492E-01  4.6043215523E-01
6.8839442927E-01  1.4094986833E-01 -2.7765354972E-02
9.9126712945E-01  4.1459966723E-01  3.5547190082E-01
4.9114630194E-01  1.0850427049E+00  6.4384778532E-01


kptopt   1
            ngfft          72      75      75

ngkpt    2 2 2
nshiftk 1
shiftk 
0.5 0.5 0.5

ecut       30
pawecutdg  30
pawxcdev   0
ixc      -116133
nband    104
diemac   4

ecutsm  0.5
nstep    100
iscf     7
tolvrs   1.0E-20
ionmov   2
optcell  2
dilatmx  1.04
tolmxf   1e-8
ntime    250
strtarget 0.0 XXXX 4*0.0 



# Printing flags
prtden    1
prteig    0
prtwf     1
prtposcar 0
prtcif    1
