#input for KTaO3

ndtset    3

autoparal 1

#Crystal Def.
ntypat   3
natom    26
typat    4*1 4*2 18*3
znucl    57 42 8
acell 3*1


rprim
  1.35751115757705E+01 -6.94924412496316E-01 -7.57847860102073E-02
 -7.19312041919465E-01  1.35757883944507E+01 -9.51694905356327E-03
 -7.61474083071563E-02 -1.31740434888935E-02  1.33101794109066E+01

             xred      8.3488982812E-01  8.9468092698E-01  8.7609468248E-01
                       3.7110294634E-01  6.8177118333E-01  1.2973804024E-01
                       1.2850433682E-01  3.1842418693E-01  6.3141193349E-01
                       6.6523387151E-01  1.0424306792E-01  3.7576592031E-01
                       2.0518961188E-01  2.0319634367E-01  1.6946219896E-01
                       6.1969907447E-01  3.1033600778E-01  8.3879607998E-01
                       8.7948929272E-01  6.8866807292E-01  3.3820328528E-01
                       2.9398943820E-01  7.9791550155E-01  6.6828355680E-01
                       2.8681835219E-01  4.0327875288E-01  3.1603566432E-01
                       8.0603988462E-01  1.9536759529E-01  6.8080681401E-01
                       6.9323817353E-01  8.0400942458E-01  1.8069514046E-01
                       2.1343557959E-01  5.9920496880E-01  8.1681887519E-01
                       1.0183746045E+00  1.3362466878E-01  3.3240966410E-01
                       4.6253147257E-01  2.4815379934E-01  6.3145100623E-01
                       3.5493206036E-02  7.5050439203E-01  1.3332303447E-01
                       4.8401405011E-01  8.6418954478E-01  8.3312925087E-01
                       3.5929672737E-01  1.0280768599E+00  1.8704616928E-01
                       1.4110511465E-01 -2.6805248321E-02  6.9060924599E-01
                       7.3091545912E-01  5.3902930311E-01  8.3655617975E-01
                       7.6951781471E-01  4.5945501656E-01  3.3565972661E-01
                       7.0932447319E-02  2.0091520540E-01  9.5683865948E-01
                       8.0065153179E-01  8.3766653068E-01  5.2631681542E-01
                       4.2666641065E-01  8.0440986822E-01  4.5674059626E-01
                       7.0102450718E-01  1.6020715455E-01  2.5857575910E-02
                       4.1609662257E-01  3.5580155026E-01  9.9037582490E-01
                       1.0857496414E+00  6.4367532211E-01  4.9157405920E-01
 
nshiftk 1
shiftk 
0.5 0.5 0.5
#chksymbreak 0
kptopt   1
ngkpt    2 2 2

ecut 30
ixc      -116133
nband    104
nstep    150
diemac   4


# Data set 1 - Refinement of already computed GS WFs       
irdwfk1   0
irdden1   0
iscf1     7
tolvrs1   1.0E-20
nstep1    100

# Data Set 2: Response Function calculation : d/dk 
rfelfd2    2 
rfdir2     1    1    1 

nqpt2      1 
qpt2       0.0  0.0  0.0  

getwfk2   -1 
getden2   -1 

kptopt2    2 

iscf2     -3 

tolwfr2    1.0d-22 

# Data set 3 : Response Function calculation - electric field perturbation, phonons, and strain

rfphon3   1            # Will consider phonon-type perturbation 
rfelfd3   3            # Electric Field
rfstrs3   3            # Strains

rfdir3    1   1   1    # Along all reduced coordinate axis 
rfatpol3  1   26        # All the atoms will be displaced 

nqpt3     1            # One wavevector is to be considered 
qpt3      0.0 0.0 0.0  # This wavevector is q=0 (Gamma) 

kptopt3   2            # Automatic generation of k points, taking 
                       # into account the time-reversal symmetry only 

getwfk3   1            # Read the ground-state wavefunctions 
getddk3   2
                                              
tolvrs3   1.0d-20      # SCF stopping criterion 
                       



# Printing flags
prtden    1
prteig    0
prtwf     1
prtposcar 0
prtcif    0

ecutsm  0.5
            ngfft          72      75      75
pawecutdg  30
pawxcdev   0
