#input for non-centrosymmetric orthorhombic HfO2

ndtset    2

autoparal 1

#Crystal Def.
ntypat   3
natom    26
typat    4*1 4*2 18*3
znucl    57 42 8
acell 3*1

rprim
  1.35744992234833E+01 -6.89544408181435E-01 -1.55340934221134E-01
 -7.13917901853736E-01  1.35759966817694E+01 -3.30114847313351E-02
 -1.55564000090438E-01 -4.04379421237347E-02  1.33123969434440E+01

             xred      8.3529624913E-01  8.9403907690E-01  8.7631042559E-01
                       3.7177999731E-01  6.8136196820E-01  1.2829996873E-01
                       1.2971255256E-01  3.1815670515E-01  6.3392148048E-01
                       6.6551351914E-01  1.0388827857E-01  3.7563786459E-01
                       2.0464928796E-01  2.0370730241E-01  1.7067825964E-01
                       6.1934562975E-01  3.0976760289E-01  8.3894683707E-01
                       8.7911552137E-01  6.8802887296E-01  3.3790614544E-01
                       2.9371788266E-01  7.9861435337E-01  6.6731985586E-01
                       2.8832496082E-01  4.0449773025E-01  3.1576795897E-01
                       8.0618996063E-01  1.9580186600E-01  6.8105334377E-01
                       6.9331969644E-01  8.0471304689E-01  1.8049516770E-01
                       2.1328557492E-01  6.0140649950E-01  8.1716712166E-01
                       1.0201094602E+00  1.3316161101E-01  3.3330162508E-01
                       4.6197205311E-01  2.4651766987E-01  6.2986123770E-01
                       3.4755331900E-02  7.4900950991E-01  1.3468791883E-01
                       4.8588523351E-01  8.6283015794E-01  8.3253289661E-01
                       3.5932460920E-01  1.0285422343E+00  1.8453126926E-01
                       1.4164918871E-01 -2.5852367366E-02  6.9289734170E-01
                       7.3009481165E-01  5.3863067066E-01  8.3789509926E-01
                       7.6844037686E-01  4.5919497732E-01  3.3416369794E-01
                       6.8567275545E-02  2.0359070700E-01  9.5811146440E-01
                       8.0145109490E-01  8.3692740417E-01  5.2658727773E-01
                       4.2460797596E-01  8.0637825864E-01  4.5587638555E-01
                       7.0139019901E-01  1.5948435141E-01  2.5572023916E-02
                       4.1549035404E-01  3.5507281389E-01  9.8797968990E-01
                       1.0860112026E+00  6.4252869813E-01  4.9249764264E-01
 
kptopt   1
            ngfft          72      75      75
ngkpt    2 2 2
nshiftk 1
shiftk 
0.5 0.5 0.5
ecut       30
ecutsm  0.5
pawecutdg  30
pawxcdev   0
ixc      -116133
nband    104
diemac   4

# First SCF run       
#irdwfk1   1
nstep1    100
iscf1     7
tolvrs1   1.0E-20

#Refinement using tolwfr
nstep2    250
getwfk2   -1
iscf2     7
tolwfr2   1.0E-20

# Printing flags
prtden    1
prteig    0
prtwf     1
prtposcar 0
prtcif    1
