#input for non-centrosymmetric orthorhombic HfO2

ndtset    2

autoparal 1

#Crystal Def.
ntypat   3
natom    26
typat    4*1 4*2 18*3
znucl    57 42 8
acell 3*1

rprim
  1.36844012944170E+01  7.01541523375966E-01 -2.50832346634112E-03
  7.22684804795330E-01  1.35344124175306E+01  7.99668213087005E-03
 -3.14066665048364E-03  7.26624219215395E-03  1.32846209176085E+01

             xred      8.7207416648E-01  8.1807841404E-01  8.6929658947E-01
                       3.3431007181E-01  6.0455772744E-01  1.2449514950E-01
                       1.6535856359E-01  3.9565104426E-01  6.2438275597E-01
                       6.2627215031E-01  1.8138359118E-01  3.7060104824E-01
                       1.1864812199E-01  1.8923653542E-01  1.6176624707E-01
                       7.0521083531E-01  2.9837370927E-01  8.3105253595E-01
                       7.9479652753E-01  7.0157603512E-01  3.3042227517E-01
                       3.8130917244E-01  8.1055884757E-01  6.6192488085E-01
                       3.0558838609E-01  3.0330016150E-01  3.1960964787E-01
                       7.8385111126E-01  9.8007993792E-02  6.8336162335E-01
                       7.1535861642E-01  9.0249237657E-01  1.8350098623E-01
                       1.9400125621E-01  6.9776921175E-01  8.1937864510E-01
                       9.6362876099E-01  2.5099559099E-01  3.6778422993E-01
                       5.1770740897E-01  3.6752035875E-01  6.6788673388E-01
                      -1.8117716283E-02  6.3311902281E-01  1.6675388501E-01
                       5.3588187672E-01  7.4890327310E-01  8.6895273827E-01
                       2.2800289498E-01  9.5941580224E-01  1.6498185724E-01
                       2.7336884232E-01  4.1027595320E-02  6.6278843752E-01
                       8.5872978860E-01  4.7316874722E-01  8.1050774778E-01
                       6.4122994312E-01  5.2681164377E-01  3.1032705267E-01
                       1.9985402833E-01  3.3941221721E-01  9.7398987587E-01
                       9.2808619041E-01  6.9904989127E-01  5.4246513870E-01
                       3.0056811428E-01  6.6082123640E-01  4.7408709305E-01
                       5.7288246204E-01  3.0016091538E-01  4.3401454409E-02
                      -8.3579534946E-02  1.4424257160E-01  7.4565022696E-03
                       5.8497796102E-01  8.5436548603E-01  5.0882486864E-01
 
kptopt   1
            ngfft          72      75      75
ngkpt    2 2 2
nshiftk 1
shiftk 
0.5 0.5 0.5
ecut       30
ecutsm  0.5
pawecutdg  30
pawxcdev   0
ixc      -116133
nband    104
diemac   4

# First SCF run       
#irdwfk1   1
nstep1    100
iscf1     7
tolvrs1   1.0E-20

#Refinement using tolwfr
nstep2    250
getwfk2   -1
iscf2     7
tolwfr2   1.0E-20

# Printing flags
prtden    1
prteig    0
prtwf     1
prtposcar 0
prtcif    1
