#input for non-centrosymmetric orthorhombic HfO2

ndtset    2

autoparal 1

#Crystal Def.
ntypat   3
natom    26
typat    4*1 4*2 18*3
znucl    57 42 8
acell 3*1

rprim
  1.32218784732713E+01 -9.24070302288915E-05 -1.88993147951217E-03
 -2.06553140600446E-04  1.36005498032426E+01 -7.02036135871644E-01
 -1.80134453352316E-03 -7.26299798412382E-01  1.36060357690004E+01

             xred      8.7592393261E-01  8.3483192796E-01  8.9574140666E-01
                       3.7577201305E-01  6.6528287845E-01  1.0448144308E-01
                       1.3130772432E-01  3.7124323803E-01  6.8103507674E-01
                       6.3118388564E-01  1.2922671465E-01  3.1867018619E-01
                       1.6898116476E-01  2.0570229206E-01  2.0203004908E-01
                       6.6905074577E-01  2.9487172056E-01  7.9802015303E-01
                       8.3797999203E-01  6.1972250726E-01  3.1088649652E-01
                       3.3809005627E-01  8.8005941982E-01  6.8902760183E-01
                       3.1717578066E-01  2.8654474095E-01  4.0145517118E-01
                       8.1687060963E-01  2.1458299007E-01  5.9837943891E-01
                       6.8047596916E-01  8.0644028539E-01  1.9696894190E-01
                       1.8035926510E-01  6.9356571536E-01  8.0361811865E-01
                       9.5648958102E-01  7.0845836807E-02  1.9734044427E-01
                       4.5677395450E-01  4.2984573444E-01  8.0192905580E-01
                       2.7135838969E-02  6.9984690554E-01  1.6213932273E-01
                       5.2694546008E-01  8.0058013880E-01  8.3859524291E-01
                       3.3389843244E-01  1.0174524322E+00  1.3483475595E-01
                       1.3042978428E-01  3.5727801068E-02  7.5140475049E-01
                       8.3414338895E-01  4.8258859468E-01  8.6643164737E-01
                       6.3073627755E-01  4.6371066883E-01  2.4772219242E-01
                       1.8908617198E-01  3.5798193611E-01  1.0266294510E+00
                       8.3600068105E-01  7.2828843328E-01  5.4000411143E-01
                       3.3629539553E-01  7.6973581467E-01  4.6055885678E-01
                       6.8836104834E-01  1.4155705047E-01 -2.7383304197E-02
                       9.9045105386E-01  4.1381846292E-01  3.5472491450E-01
                       4.9008179243E-01  1.0859457595E+00  6.4475447489E-01
 
kptopt   1
            ngfft          72      75      75
ngkpt    2 2 2
nshiftk 1
shiftk 
0.5 0.5 0.5
ecut       30
ecutsm  0.5
pawecutdg  30
pawxcdev   0
ixc      -116133
nband    104
diemac   4

# First SCF run       
#irdwfk1   1
nstep1    100
iscf1     7
tolvrs1   1.0E-20

#Refinement using tolwfr
nstep2    250
getwfk2   -1
iscf2     7
tolwfr2   1.0E-20

# Printing flags
prtden    1
prteig    0
prtwf     1
prtposcar 0
prtcif    1
