#input for non-centrosymmetric orthorhombic HfO2

ndtset    1
autoparal 1

#Crystal Def.

nsym      1
ntypat   3
natom    26
typat    4*1 4*2 18*3
znucl    57 42 8

acell 3*1

rprim
  1.32218788106164E+01 -9.20945469080665E-05 -1.89018432851407E-03
 -2.06218369234263E-04  1.36005498453852E+01 -7.02036708378327E-01
 -1.80162198348338E-03 -7.26300387607684E-01  1.36060354947052E+01

xred      
  8.75923898676448E-01  8.34831907550676E-01  8.95741407348396E-01
  3.75772010320258E-01  6.65282906349305E-01  1.04481447171728E-01
  1.31307713594935E-01  3.71243211442009E-01  6.81035082755053E-01
  6.31183931027306E-01  1.29226699817352E-01  3.18670151293671E-01
  1.68981233063480E-01  2.05702324471532E-01  2.02030034406666E-01
  6.69050711083339E-01  2.94871712096921E-01  7.98020153505470E-01
  8.37979993994994E-01  6.19722474664397E-01  3.10886501753378E-01
  3.38090004261921E-01  8.80059419334676E-01  6.89027618977581E-01
  3.17175835720288E-01  2.86544762499199E-01  4.01455185679615E-01
  8.16870542980986E-01  2.14582963273848E-01  5.98379412306716E-01
  6.80475972248074E-01  8.06440275058930E-01  1.96968951878406E-01
  1.80359237435655E-01  6.93565715008974E-01  8.03618126722405E-01
  9.56489663518225E-01  7.08458547193585E-02  1.97340366477179E-01
  4.56773929917767E-01  4.29845755015436E-01  8.01929087746468E-01
  2.71358132460973E-02  6.99846851861859E-01  1.62139301210337E-01
  5.26945405669644E-01  8.00580164916117E-01  8.38595282364565E-01
  3.33898535837227E-01  1.01745248323589E+00  1.34834749307821E-01
  1.30429715295985E-01  3.57277992801820E-02  7.51404756811617E-01
  8.34143371458400E-01  4.82588590336976E-01  8.66431578033732E-01
  6.30736296758966E-01  4.63710637521989E-01  2.47722166889440E-01
  1.89086246452394E-01  3.57982000975917E-01  1.02662947770044E+00
  8.36000648006369E-01  7.28288381213292E-01  5.40004143472763E-01
  3.36295379958979E-01  7.69735833778911E-01  4.60558848252905E-01
  6.88361090965567E-01  1.41557054047016E-01 -2.73833037416261E-02
  9.90451095978294E-01  4.13818446824397E-01  3.54724952182149E-01
  4.90081722483993E-01  1.08594577465776E+00  6.44754519560772E-01
kptopt   1
            ngfft          72      75      75

ngkpt    2 2 2
nshiftk 1
shiftk 
0.5 0.5 0.5

ecut       30
pawecutdg  30
pawxcdev   0
ixc      -116133
nband    104
diemac   4

ecutsm  0.5
nstep    100
iscf     7
tolvrs   1.0E-20
ionmov   2
optcell  2
dilatmx  1.04
tolmxf   1e-8
ntime    150
strtarget -3.39893e-05 5*0.0 



# Printing flags
prtden    1
prteig    0
prtwf     1
prtposcar 0
prtcif    1
