#input for non-centrosymmetric orthorhombic HfO2

ndtset    2

autoparal 1

#Crystal Def.
ntypat   3
natom    26
typat    4*1 4*2 18*3
znucl    57 42 8
acell 3*1

rprim
  1.33181693494716E+01  0.00000000000000E+00  0.00000000000000E+00
  0.00000000000000E+00  1.35625051551664E+01  5.63569179018335E-01
  0.00000000000000E+00  5.90509273531258E-01  1.35570532790786E+01

             xred      8.7019385765E-01  8.7516477507E-01  8.2058754854E-01
                       3.7019385765E-01  6.2483522493E-01  1.7941245146E-01
                       1.2487281825E-01  3.3660528027E-01  6.0594465652E-01
                       6.2487281825E-01  1.6339471973E-01  3.9405534348E-01
                       1.6127587589E-01  1.1867133531E-01  1.8932993577E-01
                       6.6127587589E-01  3.8132866469E-01  8.1067006423E-01
                       8.3122788179E-01  7.0319358345E-01  2.9760026483E-01
                       3.3122788179E-01  7.9680641655E-01  7.0239973517E-01
                       3.1943071967E-01  3.0475438985E-01  3.0506476143E-01
                       8.1943071967E-01  1.9524561015E-01  6.9493523857E-01
                       6.8364844781E-01  7.8366244401E-01  9.9467107178E-02
                       1.8364844781E-01  7.1633755599E-01  9.0053289282E-01
                       9.7412042730E-01  2.0086365212E-01  3.4046401607E-01
                       4.7412042730E-01  2.9913634788E-01  6.5953598393E-01
                       4.4230456773E-02  5.7172894247E-01  2.9904840601E-01
                       5.4423045677E-01  9.2827105753E-01  7.0095159399E-01
                       3.6690042527E-01  9.6154567479E-01  2.4817322415E-01
                       1.6817701369E-01 -1.5554734008E-02  6.3447201113E-01
                       8.6690042527E-01  5.3845432521E-01  7.5182677585E-01
                       6.6817701369E-01  5.1555473401E-01  3.6552798887E-01
                       1.6155466974E-01  2.2711120504E-01  9.6084142158E-01
                       8.1234823380E-01  8.5866511208E-01  4.7441795618E-01
                       3.1234823380E-01  6.4133488792E-01  5.2558204382E-01
                       6.6155466974E-01  2.7288879496E-01  3.9158578423E-02
                       7.0191723875E-03 -8.5718580073E-02  1.4489846490E-01
                       5.0701917239E-01  5.8571858007E-01  8.5510153510E-01
 
kptopt   1
            ngfft          72      75      75
ngkpt    2 2 2
nshiftk 1
shiftk 
0.5 0.5 0.5
pawecutdg  30
pawxcdev   0
ixc      -116133
nband    104
diemac   4

# First SCF run       
#irdwfk1   1
nstep1    100
iscf1     7
tolvrs1   1.0E-20

#Refinement using tolwfr
nstep2    250
getwfk2   -1
iscf2     7
tolwfr2   1.0E-20

# Printing flags
prtden    1
prteig    0
prtwf     1
prtposcar 0
prtcif    1
