#input for KTaO3

ndtset    3

autoparal 1

#Crystal Def.
ntypat   3
natom    26
typat    4*1 4*2 18*3
znucl    57 42 8
acell 3*1


rprim
  1.36869066205242E+01 -6.96274723954108E-01  4.10264249133029E-03
 -7.28591765279641E-01  1.35368838513466E+01  5.16615303823246E-03
  3.18202686879532E-03  5.43821087036204E-03  1.32845315178976E+01

             xred      8.3436358947E-01  8.9575530178E-01  8.7562645451E-01
                       3.7288363238E-01  6.8214338810E-01  1.3032118896E-01
                       1.2702036401E-01  3.1812938481E-01  6.2965465721E-01
                       6.6571070724E-01  1.0438994168E-01  3.7553599896E-01
                       2.0551446492E-01  2.0195997663E-01  1.6894762152E-01
                       6.1872756794E-01  3.1090777426E-01  8.3794222437E-01
                       8.8133644446E-01  6.8918437757E-01  3.3830581206E-01
                       2.9461477248E-01  7.9789466202E-01  6.6953977419E-01
                       2.8395071110E-01  4.0276069907E-01  3.1616132847E-01
                       8.0571387410E-01  1.9686232739E-01  6.8043924317E-01
                       6.9418328965E-01  8.0303719831E-01  1.8060462938E-01
                       2.1563067832E-01  5.9710776032E-01  8.1681893474E-01
                       1.0179466768E+00  1.3329814282E-01  3.3226960038E-01
                       4.6383671004E-01  2.4910035958E-01  6.3169902450E-01
                       3.6189197737E-02  7.5157736770E-01  1.3184669049E-01
                       4.8144176385E-01  8.6736552207E-01  8.3317076547E-01
                       3.5893187305E-01  1.0272851541E+00  1.9060228350E-01
                       1.4104261011E-01 -2.7385575936E-02  6.8897628310E-01
                       7.2716058513E-01  5.4105522018E-01  8.3558931155E-01
                       7.7295793758E-01  4.5901429560E-01  3.3607437469E-01
                       7.3094739527E-02  1.9853756956E-01  9.5645173415E-01
                       8.0007303512E-01  8.3896052615E-01  5.2602559816E-01
                       4.2763033951E-01  8.0000831585E-01  4.5749488810E-01
                       6.9995038584E-01  1.6115639774E-01  2.5890950129E-02
                       4.1601684432E-01  3.5497319399E-01  9.9203106629E-01
                       1.0840772052E+00  6.4492071864E-01  4.9197956194E-01
 
nshiftk 1
shiftk 
0.5 0.5 0.5
#chksymbreak 0
kptopt   1
ngkpt    2 2 2

ecut 30
ixc      -116133
nband    104
nstep    150
diemac   4


# Data set 1 - Refinement of already computed GS WFs       
irdwfk1   0
irdden1   0
iscf1     7
tolvrs1   1.0E-20
nstep1    100

# Data Set 2: Response Function calculation : d/dk 
rfelfd2    2 
rfdir2     1    1    1 

nqpt2      1 
qpt2       0.0  0.0  0.0  

getwfk2   -1 
getden2   -1 

kptopt2    2 

iscf2     -3 

tolwfr2    1.0d-22 

# Data set 3 : Response Function calculation - electric field perturbation, phonons, and strain

rfphon3   1            # Will consider phonon-type perturbation 
rfelfd3   3            # Electric Field
rfstrs3   3            # Strains

rfdir3    1   1   1    # Along all reduced coordinate axis 
rfatpol3  1   26        # All the atoms will be displaced 

nqpt3     1            # One wavevector is to be considered 
qpt3      0.0 0.0 0.0  # This wavevector is q=0 (Gamma) 

kptopt3   2            # Automatic generation of k points, taking 
                       # into account the time-reversal symmetry only 

getwfk3   1            # Read the ground-state wavefunctions 
getddk3   2
                                              
tolvrs3   1.0d-20      # SCF stopping criterion 
                       



# Printing flags
prtden    1
prteig    0
prtwf     1
prtposcar 0
prtcif    0

ecutsm  0.5
            ngfft          72      75      75
pawecutdg  30
pawxcdev   0
