#input for non-centrosymmetric orthorhombic HfO2

ndtset    2

autoparal 1

#Crystal Def.
ntypat   3
natom    26
typat    4*1 4*2 18*3
znucl    57 42 8
acell 3*1

rprim
  1.36374114328326E+01 -5.29245903812835E-01  5.77000676534399E-02
 -5.55175368822863E-01  1.36103596213269E+01  3.75416674345933E-01
  7.47190946178457E-02  3.72310924783437E-01  1.32548487513399E+01

             xred      8.2456149339E-01  8.7879792584E-01  8.6615986589E-01
                       3.5277736553E-01  6.8952052394E-01  1.5310160481E-01
                       8.4696365112E-02  3.3927440996E-01  6.2044120418E-01
                       6.5719759655E-01  1.0963243087E-01  3.7695034848E-01
                       1.9509702851E-01  2.0403535400E-01  1.7102450358E-01
                       6.1912654359E-01  3.0962226021E-01  8.4363238139E-01
                       8.8222810072E-01  6.9003856599E-01  3.3330753856E-01
                       2.9259455209E-01  8.0303462898E-01  6.7321325040E-01
                       2.6834006023E-01  3.9257690301E-01  3.2084902523E-01
                       7.9609479017E-01  1.6741628734E-01  6.7736004366E-01
                       6.8443851333E-01  7.6633452174E-01  1.7918730181E-01
                       2.0152390907E-01  5.9809611707E-01  8.1204074983E-01
                       1.0060490067E+00  1.1887924542E-01  3.2440221658E-01
                       4.6306852607E-01  2.6313619885E-01  6.4580077318E-01
                       3.0871915782E-02  7.6320540312E-01  1.1823423099E-01
                       4.7584730453E-01  8.5134301258E-01  8.4305386675E-01
                       3.5616561827E-01  1.0319254389E+00  1.8069892477E-01
                       1.3965390374E-01 -1.9511322918E-02  6.9478622926E-01
                       7.6805287112E-01  5.1549605549E-01  8.0823852267E-01
                       8.1754578316E-01  4.4737767214E-01  3.6698022115E-01
                       8.4810292504E-02  2.3301909545E-01  9.5104797913E-01
                       8.0073464080E-01  8.2951756133E-01  5.1855240334E-01
                       4.4089707430E-01  8.2245385121E-01  4.6507799928E-01
                       7.0330854819E-01  1.4227262132E-01  2.7606130701E-02
                       4.4430207385E-01  3.8148027997E-01  1.0083713687E+00
                       1.1100161226E+00  6.7102495821E-01  4.6988131570E-01
 
kptopt   1
            ngfft          72      75      75
ngkpt    2 2 2
nshiftk 1
shiftk 
0.5 0.5 0.5
ecut       30
ecutsm  0.5
pawecutdg  30
pawxcdev   0
ixc      -116133
nband    104
diemac   4

# First SCF run       
#irdwfk1   1
nstep1    100
iscf1     7
tolvrs1   1.0E-20

#Refinement using tolwfr
nstep2    250
getwfk2   -1
iscf2     7
tolwfr2   1.0E-20

# Printing flags
prtden    1
prteig    0
prtwf     1
prtposcar 0
prtcif    1
