#input for KTaO3

ndtset    3

autoparal 1

#Crystal Def.
ntypat   3
natom    26
typat    4*1 4*2 18*3
znucl    57 42 8
acell 3*1


rprim
  1.36290110712027E+01 -8.81136658092178E-03  9.78522979571641E-01
 -8.70256721494036E-03  1.32745292541536E+01  1.43992860179412E-03
  9.73447653164793E-01  2.08132882956040E-04  1.36008616523878E+01

             xred      8.1437142518E-01  8.6710120605E-01  8.6292553117E-01
                       3.9626461329E-01  6.2277830707E-01  1.6954179548E-01
                       1.8655935119E-01  3.6580873442E-01  6.3925151547E-01
                       6.0358227958E-01  1.2244063637E-01  3.3103559695E-01
                       1.9013921232E-01  1.6286305367E-01  1.2246719663E-01
                       7.0153460759E-01  3.3071869650E-01  7.9084820396E-01
                       8.0978763803E-01  6.6211539550E-01  3.7781067244E-01
                       2.9868027629E-01  8.3083314449E-01  7.0968675314E-01
                       3.0024181164E-01  3.1878586393E-01  3.1074104688E-01
                       9.0353159330E-01  1.8416632756E-01  7.0772186827E-01
                       6.9733537705E-01  8.1891927067E-01  1.9026329381E-01
                       9.6298529170E-02  6.8445742482E-01  7.9342942787E-01
                       9.5921767910E-01  1.6637704243E-01  2.3453953415E-01
                       5.3039518311E-01  3.0804138185E-01  6.4052290349E-01
                       3.9361808563E-02  6.6764145976E-01  2.6242322732E-01
                       4.6998781727E-01  8.0860100009E-01  8.5989123311E-01
                       3.3510267196E-01  9.7323240810E-01  1.9782811739E-01
                       3.0853702379E-01  3.9799012378E-02  5.6951321241E-01
                       6.9254625993E-01  5.4087362027E-01  9.2878173975E-01
                       6.6390944522E-01  4.7297009926E-01  3.0144702832E-01
                       2.5814065413E-01  3.7179608445E-01  9.6791882540E-01
                       7.4335315369E-01  8.7090768597E-01  5.3238567327E-01
                       3.6645214646E-01  6.6339424382E-01  5.2108790693E-01
                       6.3308060103E-01  1.6436549131E-01 -1.9898643631E-02
                       1.4526125655E-01  1.6477800226E-02 -8.6610993012E-02
                       8.5632758457E-01  5.1453460906E-01  5.8444733303E-01
 
nshiftk 1
shiftk 
0.5 0.5 0.5
#chksymbreak 0
kptopt   1
ngkpt    2 2 2

ecut 30
ixc      -116133
nband    104
nstep    150
diemac   4


# Data set 1 - Refinement of already computed GS WFs       
irdwfk1   0
irdden1   0
iscf1     7
tolvrs1   1.0E-20
nstep1    100

# Data Set 2: Response Function calculation : d/dk 
rfelfd2    2 
rfdir2     1    1    1 

nqpt2      1 
qpt2       0.0  0.0  0.0  

getwfk2   -1 
getden2   -1 

kptopt2    2 

iscf2     -3 

tolwfr2    1.0d-22 

# Data set 3 : Response Function calculation - electric field perturbation, phonons, and strain

rfphon3   1            # Will consider phonon-type perturbation 
rfelfd3   3            # Electric Field
rfstrs3   3            # Strains

rfdir3    1   1   1    # Along all reduced coordinate axis 
rfatpol3  1   26        # All the atoms will be displaced 

nqpt3     1            # One wavevector is to be considered 
qpt3      0.0 0.0 0.0  # This wavevector is q=0 (Gamma) 

kptopt3   2            # Automatic generation of k points, taking 
                       # into account the time-reversal symmetry only 

getwfk3   1            # Read the ground-state wavefunctions 
getddk3   2
                                              
tolvrs3   1.0d-20      # SCF stopping criterion 
                       



# Printing flags
prtden    1
prteig    0
prtwf     1
prtposcar 0
prtcif    0

ecutsm  0.5
            ngfft          72      75      75
pawecutdg  30
pawxcdev   0
