#input for non-centrosymmetric orthorhombic HfO2

ndtset    1
autoparal 1

#Crystal Def.

nsym      1
ntypat   3
natom    26
typat    4*1 4*2 18*3
znucl    57 42 8

acell 3*1

rprim
  1.32890851938681E+01 -1.32860756412814E-01  9.83374161720548E-02
 -1.39551221729815E-01  1.36265829609869E+01 -6.70328781286691E-02
  1.25052108392570E-01 -6.90188501773361E-02  1.36387730511840E+01

xred      
  8.74916941277030E-01  8.52493932922681E-01  8.65308005317770E-01
  3.33011926975480E-01  6.21434072363062E-01  1.93744896333077E-01
  1.43306028953741E-01  3.52165371884323E-01  6.38245393006730E-01
  6.51111391836326E-01  1.16106962289446E-01  3.14889639005169E-01
  1.38441300099454E-01  1.76244483084785E-01  1.86227579955579E-01
  6.58787898721335E-01  3.29282296894779E-01  8.09739606000265E-01
  8.50275898242411E-01  6.77477222621222E-01  3.25329254356362E-01
  3.64620360030219E-01  8.58485019217429E-01  7.06219878201037E-01
  2.97299736339438E-01  6.42876549477695E-01  8.09169455257461E-01
  3.17472754104309E-01  3.14582816577172E-01  3.35277367819006E-01
  6.64605302735819E-01  7.85807183744333E-01  1.64645199401801E-01
  8.52816837277752E-01  1.86899739832771E-01  7.54027376823308E-01
  1.05077257238132E-02  6.85870302797236E-01  1.12047114895126E-01
  2.84031095774399E-01  9.78931170966718E-01  1.54236729139130E-01
  8.12272434146659E-01  8.61028305394891E-01  4.92891553493693E-01
  7.56095750047716E-01  5.52602448563214E-01  7.68050252887621E-01
  5.55301345700278E-01  9.54969137262707E-01  8.31301243171818E-01
  9.79100839258132E-01  2.07520224500594E-01  3.97263911222057E-01
  7.10864636780103E-01  4.76443006636602E-01  3.67937068278610E-01
  1.68994282046270E-01  3.41659157534169E-01  1.00373363426284E+00
  4.77503353538647E-01  2.73900724647485E-01  6.48863560283585E-01
  1.66976105479491E-01  5.37824258951660E-03  7.28724989331133E-01
  1.08326701766072E+00  6.10614294807831E-01  4.43038348684052E-01
  5.77646017931062E-01  3.21357110703718E-01  4.16535388362622E-02
  4.28480203610206E-01  8.40014563923139E-01  4.70255841798310E-01
 -9.28695696801509E-02  7.87160322399157E-02  1.09558152186904E+00


kptopt   1
            ngfft          72      75      75

ngkpt    2 2 2
nshiftk 1
shiftk 
0.5 0.5 0.5

ecut       30
pawecutdg  30
pawxcdev   0
ixc      -116133
nband    104
diemac   4

ecutsm  0.5
nstep    100
iscf     7
tolvrs   1.0E-20
ionmov   2
optcell  2
dilatmx  1.04
tolmxf   1e-8
ntime    250
strtarget 3*0.0 1.69946e-05 2*0.0



# Printing flags
prtden    1
prteig    0
prtwf     1
prtposcar 0
prtcif    1
