#input for non-centrosymmetric orthorhombic HfO2

ndtset    1
autoparal 1

#Crystal Def.

nsym      1
ntypat   3
natom    26
typat    4*1 4*2 18*3
znucl    57 42 8

acell 3*1

rprim
  1.35562496242584E+01  5.08795641818059E-01 -1.83495138238563E-03
  5.22337265036074E-01  1.35526143991586E+01  3.02253139442421E-02
 -3.58722741902158E-03  2.91366014953675E-02  1.33210342949011E+01

xred      
  8.72565543748534E-01  8.19940641865568E-01  8.67762323978735E-01
  3.35890114225875E-01  6.07817468129696E-01  1.25905064725883E-01
  1.61752463950099E-01  3.94265714057973E-01  6.25216224231663E-01
  6.18807483679070E-01  1.77063531539841E-01  3.72313225299256E-01
  1.18249833484530E-01  1.89425614660145E-01  1.60823796415711E-01
  7.01998943660552E-01  2.96856716762324E-01  8.31403532570263E-01
  7.96939938228919E-01  7.02146102528054E-01  3.30354290152649E-01
  3.81843617670597E-01  8.10603017303530E-01  6.62019671035869E-01
  3.02733231203394E-01  3.09749911058381E-01  3.20058543984280E-01
  7.81187791260776E-01  1.00779634979096E-01  6.82435272687769E-01
  7.15098466342910E-01  9.00689494393005E-01  1.84153433850590E-01
  1.94188962696184E-01  6.98144230637285E-01  8.19326374321868E-01
  9.59572972574319E-01  2.46316042583768E-01  3.64287106151140E-01
  5.14576407280522E-01  3.67421578302725E-01  6.69970448322289E-01
 -1.60303061857226E-02  6.37197608568737E-01  1.66454840072746E-01
  5.38043171299863E-01  7.51069248463259E-01  8.68691920242083E-01
  2.31067778395019E-01  9.63571555502594E-01  1.65413327544974E-01
  2.79743302102827E-01  4.11190830081044E-02  6.57938943689006E-01
  8.58763444066242E-01  4.74296199757159E-01  8.14425221383060E-01
  6.41058459145737E-01  5.24285476551433E-01  3.10939135703783E-01
  2.02030709198190E-01  3.42690643793720E-01  9.74154355750998E-01
  9.29829983071671E-01  6.98708173192044E-01  5.42945925625821E-01
  2.99014300677336E-01  6.60462005532795E-01  4.74805481385843E-01
  5.73574949504890E-01  2.92687038236912E-01  4.54234735108935E-02
 -8.19631507714476E-02  1.41634264956220E-01  3.40864178109926E-03
  5.89461589474736E-01  8.51059003648367E-01  5.09369425564181E-01

kptopt   1
ngkpt    2 2 2
nshiftk 1
shiftk 
0.5 0.5 0.5

ecut       30
pawecutdg  30
pawxcdev   0
ixc      -116133
nband    104
diemac   4

ecutsm  0.5
nstep    100
iscf     7
tolvrs   1.0E-20
ionmov   2
optcell  2
dilatmx  1.04
tolmxf   1e-8
ntime    150
strtarget 3*0.0 0.0  0.0 -2.5492e-05



# Printing flags
prtden    1
prteig    0
prtwf     1
prtposcar 0
prtcif    1
