#input for non-centrosymmetric orthorhombic HfO2

ndtset    1
autoparal 1

#Crystal Def.

nsym      1
ntypat   3
natom    26
typat    4*1 4*2 18*3
znucl    57 42 8

acell 3*1

rprim
  1.36049174044042E+01  7.11967522537234E-03  6.89519627330437E-01
  7.06096560540009E-03  1.33353933098313E+01 -1.90547881326123E-03
  6.89808051680256E-01 -2.14442911058587E-03  1.34714729826954E+01

             xred    
  8.19024628247368E-01  8.68460977031639E-01  8.70143971636918E-01
  3.94856642937958E-01  6.23581140577828E-01  1.63948861434413E-01
  1.80599974581561E-01  3.69580242508478E-01  6.28645973144357E-01
  6.05187163175834E-01  1.23681036813213E-01  3.35513644460254E-01
  1.89413159909037E-01  1.61093072491573E-01  1.20432515913283E-01
  7.02698236312356E-01  3.31182389020709E-01  7.94955119273140E-01
  8.10300747977657E-01  6.61247208674603E-01  3.79783562284944E-01
  2.97425435296286E-01  8.31752909920323E-01  7.04635734299344E-01
  3.05939332958053E-01  3.18964861804171E-01  3.06052668241304E-01
  9.01008238485501E-01  1.83837761578468E-01  7.11236818149359E-01
  6.95196628616028E-01  8.18776999115936E-01  1.93435431367975E-01
  9.97712096115111E-02  6.83890228410471E-01  7.88278829276519E-01
  9.61651621329526E-01  1.63709621009099E-01  2.33060558499501E-01
  5.26944728484907E-01  3.12144246415981E-01  6.41117648681518E-01
  3.87687925051746E-02  6.62391472300097E-01  2.68852506878029E-01
  4.73012938506806E-01  8.12152159179101E-01  8.58700449243883E-01
  3.38817443680823E-01  9.73526974157445E-01  1.99809333322332E-01
  3.02425317544263E-01  4.38800612308619E-02  5.70904426886383E-01
  6.96756893005302E-01  5.42903406816163E-01  9.29619298006050E-01
  6.61582856518098E-01  4.73599016782363E-01  3.00460379986051E-01
  2.50399917698875E-01  3.67179125339455E-01  9.62611274123090E-01
  7.48640173446778E-01  8.67831453486670E-01  5.37364861794630E-01
  3.64619499523728E-01  6.67562302580992E-01  5.15211871256920E-01
  6.35902601019621E-01  1.66475287022729E-01 -1.61020586384212E-02
  1.43025083074996E-01  9.78991509738279E-03 -8.63068259625779E-02
  8.56030735565067E-01  5.10806130660560E-01  5.87633146441774E-01



kptopt   1
ngkpt    2 2 2
nshiftk 1
shiftk 
0.5 0.5 0.5

ecut       30
pawecutdg  30
pawxcdev   0
ixc      -116133
nband    104
diemac   4

ecutsm  0.5
nstep    100
iscf     7
tolvrs   1.0E-20
ionmov   2
optcell  2
dilatmx  1.04
tolmxf   1e-8
ntime    150
strtarget 2*0.00 1*-3.39893e-05  3*0.0



# Printing flags
prtden    1
prteig    0
prtwf     1
prtposcar 0
prtcif    1
