#input for non-centrosymmetric orthorhombic HfO2

ndtset    1
autoparal 1

#Crystal Def.

nsym      1
ntypat   3
natom    26
typat    4*1 4*2 18*3
znucl    57 42 8

acell 3*1

rprim
  1.33001697584277E+01  5.08236219410214E-04  7.01506111115292E-03
 -7.20902369157525E-05  1.35865200760011E+01 -8.17348868084514E-01
  7.23029466120931E-03 -8.41440465051756E-01  1.35943564448408E+01

xred      
  8.76658512349101E-01  8.33016229991775E-01  8.96061673708108E-01
  3.76748489457974E-01  6.66671890471986E-01  1.03893781540622E-01
  1.31952197752945E-01  3.66915491375046E-01  6.83881377938486E-01
  6.30768646481502E-01  1.31571419942402E-01  3.16671746359959E-01
  1.68768310717935E-01  2.07161937279603E-01  2.02202843956172E-01
  6.68948350471775E-01  2.92810920583415E-01  7.97785590321331E-01
  8.38395178628228E-01  6.20784244204957E-01  3.10832287902692E-01
  3.38153567307669E-01  8.78966573345505E-01  6.89355677178331E-01
  3.16021942743118E-01  2.88370623773053E-01  4.02902346866298E-01
  8.15836050378759E-01  2.10838518555766E-01  5.96742709866101E-01
  6.80896469896763E-01  8.07361532452557E-01  1.96287569883226E-01
  1.81062070259752E-01  6.91999635927817E-01  8.02586684127857E-01
  9.57167738992592E-01  7.23786044831945E-02  1.95197324714236E-01
  4.58270340363906E-01  4.29267682109086E-01  8.05004929608692E-01
  2.65288416747133E-02  6.99686288041665E-01  1.62960830422327E-01
  5.26371629754381E-01  8.01127895687423E-01  8.37029262759813E-01
  3.33342490735874E-01  1.01808207178413E+00  1.33697081505312E-01
  1.30626550016897E-01  3.45302022415317E-02  7.53426760001902E-01
  8.34438335207975E-01  4.81275328837030E-01  8.65977441758518E-01
  6.31655373882658E-01  4.64702752724974E-01  2.46861389069344E-01
  1.90359542907664E-01  3.59327308670144E-01  1.02893414857676E+00
  8.34167371408965E-01  7.33753672200300E-01  5.40047182280040E-01
  3.35770156543468E-01  7.67325293520821E-01  4.59550758924788E-01
  6.89524079217683E-01  1.40478310251091E-01 -2.90458082439480E-02
  9.89620255462156E-01  4.15897449577107E-01  3.56868552211979E-01
  4.87947507341764E-01  1.08569812192069E+00  6.44285856829261E-01

kptopt   1
            ngfft          72      75      75

ngkpt    2 2 2
nshiftk 1
shiftk 
0.5 0.5 0.5

ecut       30
pawecutdg  30
pawxcdev   0
ixc      -116133
nband    104
diemac   4

ecutsm  0.5
nstep    100
iscf     7
tolvrs   1.0E-20
ionmov   2
optcell  2
dilatmx  1.04
tolmxf   1e-8
ntime    250
strtarget 3*0.0 -1.69946e-05 2*0.0 



# Printing flags
prtden    1
prteig    0
prtwf     1
prtposcar 0
prtcif    1
