#input for KTaO3

ndtset    3

autoparal 1

#Crystal Def.
ntypat   3
natom    26
typat    4*1 4*2 18*3
znucl    57 42 8
acell 3*1


rprim
  1.33255629693183E+01  0.00000000000000E+00  0.00000000000000E+00
  0.00000000000000E+00  1.35216837583764E+01  6.80850367267775E-01
  0.00000000000000E+00  7.04215803610699E-01  1.35840408912835E+01

             xred      8.6959962234E-01  8.7153672263E-01  8.1928321828E-01
                       3.6959962234E-01  6.2846327737E-01  1.8071678172E-01
                       1.2398875869E-01  3.3557322009E-01  6.0502981526E-01
                       6.2398875869E-01  1.6442677991E-01  3.9497018474E-01
                       1.6116229858E-01  1.2014995662E-01  1.8939238505E-01
                       6.6116229858E-01  3.7985004338E-01  8.1060761495E-01
                       8.3141401491E-01  7.0486093050E-01  2.9780171721E-01
                       3.3141401491E-01  7.9513906950E-01  7.0219828279E-01
                       3.1911717783E-01  3.0613827239E-01  3.0464780949E-01
                       8.1911717783E-01  1.9386172761E-01  6.9535219051E-01
                       6.8373694772E-01  7.8679727614E-01  9.9050596488E-02
                       1.8373694772E-01  7.1320272386E-01  9.0094940351E-01
                       9.7378691107E-01  2.0013084495E-01  3.3908231652E-01
                       4.7378691107E-01  2.9986915505E-01  6.6091768348E-01
                       4.3599724040E-02  5.7149522978E-01  3.0191108634E-01
                       5.4359972404E-01  9.2850477022E-01  6.9808891366E-01
                       3.6734420199E-01  9.6285639920E-01  2.5002347981E-01
                       1.6756376556E-01 -1.5977095187E-02  6.3442326545E-01
                       8.6734420199E-01  5.3714360080E-01  7.4997652019E-01
                       6.6756376556E-01  5.1597709519E-01  3.6557673455E-01
                       1.6284605640E-01  2.3130899212E-01  9.6081396858E-01
                       8.1196942957E-01  8.5881811994E-01  4.7330103473E-01
                       3.1196942957E-01  6.4118188006E-01  5.2669896527E-01
                       6.6284605640E-01  2.6869100788E-01  3.9186031422E-02
                       8.8710913087E-03 -8.5588429563E-02  1.4371267401E-01
                       5.0887109131E-01  5.8558842956E-01  8.5628732599E-01
 
#chksymbreak 0
kptopt   1
ngkpt    2 2 2
nshiftk 1
shiftk
0.5 0.5 0.5

ecut 30
ixc      -116133
nband    104
nstep    150
diemac   4


# Data set 1 - Refinement of already computed GS WFs       
irdwfk1   0
irdden1   0
iscf1     7
tolvrs1   1.0E-20
nstep1    100

# Data Set 2: Response Function calculation : d/dk 
rfelfd2    2 
rfdir2     1    1    1 

nqpt2      1 
qpt2       0.0  0.0  0.0  

getwfk2   -1 
getden2   -1 

kptopt2    2 

iscf2     -3 

tolwfr2    1.0d-22 

# Data set 3 : Response Function calculation - electric field perturbation, phonons, and strain

rfphon3   1            # Will consider phonon-type perturbation 
rfelfd3   3            # Electric Field
rfstrs3   3            # Strains

rfdir3    1   1   1    # Along all reduced coordinate axis 
rfatpol3  1   26        # All the atoms will be displaced 

nqpt3     1            # One wavevector is to be considered 
qpt3      0.0 0.0 0.0  # This wavevector is q=0 (Gamma) 

kptopt3   2            # Automatic generation of k points, taking 
                       # into account the time-reversal symmetry only 

getwfk3   1            # Read the ground-state wavefunctions 
getddk3   2
                                              
tolvrs3   1.0d-20      # SCF stopping criterion 
                       



# Printing flags
prtden    1
prteig    0
prtwf     1
prtposcar 0
prtcif    0

ecutsm  0.5
            ngfft          72      75      75
pawecutdg  30
pawxcdev   0
