#input for KTaO3

ndtset    3

autoparal 1

#Crystal Def.
ntypat   3
natom    26
typat    4*1 4*2 18*3
znucl    57 42 8
acell 3*1


rprim
  1.34729546645654E+01  6.86644135681022E-01 -2.46552877955833E-03
  6.93247839829811E-01  1.36018806662888E+01  1.48366575577939E-02
 -3.40337042506830E-03  1.40048205699708E-02  1.33349737321286E+01

             xred      8.6916891592E-01  8.1893790771E-01  8.6783161199E-01
                       3.3531743792E-01  6.0531226106E-01  1.2382991688E-01
                       1.6387323038E-01  3.9492851933E-01  6.2372693383E-01
                       6.2770173726E-01  1.8000165014E-01  3.7034266334E-01
                       1.2054748865E-01  1.8937359407E-01  1.6106246904E-01
                       7.0496322848E-01  2.9759580526E-01  8.3192645582E-01
                       7.9488491906E-01  7.0227350618E-01  3.3089678453E-01
                       3.7933371919E-01  8.1036443576E-01  6.6129433522E-01
                       3.0587348829E-01  3.0647392662E-01  3.1918890643E-01
                       7.8767974797E-01  1.0007576285E-01  6.8351994247E-01
                       7.1097820657E-01  9.0089189445E-01  1.8385764789E-01
                       1.9285310717E-01  6.9618601667E-01  8.1880954820E-01
                       9.6232371787E-01  2.4984614971E-01  3.6659882523E-01
                       5.1535035657E-01  3.6556391286E-01  6.6825018689E-01
                      -1.6317542273E-02  6.3561317873E-01  1.6610892528E-01
                       5.3659644241E-01  7.4900523161E-01  8.6832154971E-01
                       2.3397586970E-01  9.6197527781E-01  1.6480030484E-01
                       2.6940749732E-01  3.9324165171E-02  6.6134295425E-01
                       8.5888098356E-01  4.7332638485E-01  8.1235679216E-01
                       6.4091042384E-01  5.2657696018E-01  3.1206297999E-01
                       2.0044623851E-01  3.3919041609E-01  9.7358924628E-01
                       9.3001656526E-01  6.9654891073E-01  5.4237797261E-01
                       3.0036289906E-01  6.6156208612E-01  4.7374734985E-01
                       5.7192348950E-01  3.0147812863E-01  4.4264316173E-02
                      -8.5007354909E-02  1.4220756786E-01  8.6598637802E-03
                       5.8795518672E-01  8.5536634953E-01  5.1123151730E-01
 
nshiftk 1
shiftk 
0.5 0.5 0.5
#chksymbreak 0
kptopt   1
ngkpt    2 2 2

ecut 30
ixc      -116133
nband    104
nstep    150
diemac   4


# Data set 1 - Refinement of already computed GS WFs       
irdwfk1   0
irdden1   0
iscf1     7
tolvrs1   1.0E-20
nstep1    100

# Data Set 2: Response Function calculation : d/dk 
rfelfd2    2 
rfdir2     1    1    1 

nqpt2      1 
qpt2       0.0  0.0  0.0  

getwfk2   -1 
getden2   -1 

kptopt2    2 

iscf2     -3 

tolwfr2    1.0d-22 

# Data set 3 : Response Function calculation - electric field perturbation, phonons, and strain

rfphon3   1            # Will consider phonon-type perturbation 
rfelfd3   3            # Electric Field
rfstrs3   3            # Strains

rfdir3    1   1   1    # Along all reduced coordinate axis 
rfatpol3  1   26        # All the atoms will be displaced 

nqpt3     1            # One wavevector is to be considered 
qpt3      0.0 0.0 0.0  # This wavevector is q=0 (Gamma) 

kptopt3   2            # Automatic generation of k points, taking 
                       # into account the time-reversal symmetry only 

getwfk3   1            # Read the ground-state wavefunctions 
getddk3   2
                                              
tolvrs3   1.0d-20      # SCF stopping criterion 
                       



# Printing flags
prtden    1
prteig    0
prtwf     1
prtposcar 0
prtcif    0

ecutsm  0.5
            ngfft          72      75      75
pawecutdg  30
pawxcdev   0
