#input for non-centrosymmetric orthorhombic HfO2

ndtset    1
autoparal 1

#Crystal Def.

nsym      1
ntypat   3
natom    26
typat    4*1 4*2 18*3
znucl    57 42 8

acell 3*1

rprim
  1.36036567647245E+01 -2.47263364643125E-03 -7.15055216025334E-01
 -2.43409187309662E-03  1.32196626898566E+01 -1.25472999856225E-04
 -7.12789193679275E-01 -8.04667490514831E-06  1.36036258490677E+01


             xred      
  8.95722420862993E-01  8.75815669245567E-01  8.34851528908360E-01
  3.18718486369650E-01  6.31322277454287E-01  1.29448535629175E-01
  1.04659585898629E-01  3.75503539814910E-01  6.65341393700550E-01
  6.80724361532094E-01  1.31294634720067E-01  3.71569953301994E-01
  2.01756342742564E-01  1.69057215799714E-01  2.05836873407856E-01
  6.89390793675378E-01  3.38070095667293E-01  8.80152424295612E-01
  7.98185430007762E-01  6.69177714477629E-01  2.94907500509131E-01
  3.10647876740016E-01  8.37682564409622E-01  6.19721897227345E-01
  4.01205142101180E-01  3.17359697269504E-01  2.86609366685047E-01
  8.03842773990494E-01  1.80246226442668E-01  6.93549590127570E-01
  5.98553664162555E-01  8.17160910228439E-01  2.14871591835697E-01
  1.97459253873715E-01  6.80328720048350E-01  8.06527923032134E-01
  1.02614971109192E+00  1.89526803621379E-01  3.57900440843873E-01
  4.61088717475765E-01  3.36207158110989E-01  7.69399022705544E-01
 -2.71652458934082E-02  6.88286295772969E-01  1.41526528724160E-01
  5.40076581602813E-01  8.35763096388199E-01  7.27647117216958E-01
  1.97411698919302E-01  9.56713783319738E-01  7.07792976465683E-02
  1.62031599039966E-01  2.70159027845796E-02  7.00003895376378E-01
  8.39245599383844E-01  5.26860745406282E-01  8.00661624056101E-01
  8.01068564672886E-01  4.57063077373065E-01  4.29930013884027E-01
  1.34668607123460E-01  3.33984908803963E-01  1.01760869132232E+00
  8.66988592508331E-01  8.34219436733421E-01  4.82431570463567E-01
  2.47555621416454E-01  6.30460364883968E-01  4.63707307304815E-01
  7.51119243425160E-01  1.30177716633052E-01  3.56092665667256E-02
  6.44644013804385E-01  4.90270777732835E-01  1.08564490063740E+00
  3.54250563486209E-01  9.90430666804238E-01  4.13761744597047E-01



kptopt   1
            ngfft          72      75      75

ngkpt    2 2 2
nshiftk 1
shiftk 
0.5 0.5 0.5

ecut       30
pawecutdg  30
pawxcdev   0
ixc      -116133
nband    104
diemac   4

ecutsm  0.5
nstep    100
iscf     7
tolvrs   1.0E-20
ionmov   2
optcell  2
dilatmx  1.04
tolmxf   1e-8
ntime    150
strtarget 0.0 -3.39893e-05 4*0.0 



# Printing flags
prtden    1
prteig    0
prtwf     1
prtposcar 0
prtcif    1
