#input for non-centrosymmetric orthorhombic HfO2

ndtset    2

autoparal 1

#Crystal Def.
ntypat   3
natom    26
typat    4*1 4*2 18*3
znucl    57 42 8
acell 3*1

rprim
  1.31806200265992E+01 -7.72113096821595E-02 -1.47306958714828E-02
 -7.81565419046421E-02  1.36690770194950E+01 -1.91747423189816E-01
  4.95152463187562E-03 -1.94185012469092E-01  1.36619803101214E+01

             xred      8.8004642653E-01  8.4918097421E-01  8.6524097381E-01
                       3.3890979227E-01  6.1766653646E-01  1.9616906507E-01
                       1.4091615013E-01  3.5249042503E-01  6.4027343575E-01
                       6.4525308971E-01  1.1505446763E-01  3.1074415801E-01
                       1.3598906306E-01  1.7766105960E-01  1.8524682125E-01
                       6.6228762879E-01  3.2808970175E-01  8.1012353953E-01
                       8.5014425540E-01  6.7993332368E-01  3.2701807334E-01
                       3.6516936756E-01  8.5458118777E-01  7.0614671733E-01
                       2.9729592886E-01  6.4330692819E-01  8.1211201260E-01
                       3.1769742758E-01  3.1475807038E-01  3.3610243600E-01
                       6.6323502423E-01  7.8932052956E-01  1.6322167120E-01
                       8.5455075459E-01  1.8166656002E-01  7.5405061491E-01
                       1.1903547654E-02  6.8684026263E-01  1.1660457395E-01
                       2.8549128818E-01  9.8121244555E-01  1.5371024210E-01
                       8.1201566514E-01  8.6624922111E-01  4.9335220263E-01
                       7.6614201227E-01  5.4682344775E-01  7.6689027721E-01
                       5.5822269867E-01  9.5399314577E-01  8.3068892565E-01
                       9.7635848162E-01  2.1124477116E-01  3.9526216727E-01
                       7.0263494449E-01  4.8501347557E-01  3.6500687929E-01
                       1.6449776576E-01  3.4044766581E-01  1.0044202073E+00
                       4.7876948940E-01  2.7367282993E-01  6.4727381169E-01
                       1.6837161348E-01  4.7770585270E-03  7.2738612085E-01
                       1.0818533107E+00  6.1006514808E-01  4.4759188739E-01
                       5.7693497497E-01  3.2649432012E-01  3.9586360942E-02
                       4.2719917699E-01  8.3286797128E-01  4.7086004279E-01
                      -9.7052263447E-02  7.9448845930E-02  1.0933197418E+00
 
kptopt   1
            ngfft          72      75      75
ngkpt    2 2 2
nshiftk 1
shiftk 
0.5 0.5 0.5
ecut       30
ecutsm  0.5
pawecutdg  30
pawxcdev   0
ixc      -116133
nband    104
diemac   4

# First SCF run       
#irdwfk1   1
nstep1    100
iscf1     7
tolvrs1   1.0E-20

#Refinement using tolwfr
nstep2    250
getwfk2   -1
iscf2     7
tolwfr2   1.0E-20

# Printing flags
prtden    1
prteig    0
prtwf     1
prtposcar 0
prtcif    1
