#input for KTaO3

ndtset    3

autoparal 1

#Crystal Def.
ntypat   3
natom    26
typat    4*1 4*2 18*3
znucl    57 42 8
acell 3*1


rprim
  1.32689361996543E+01 -1.59955448896910E-03  7.66158864221554E-03
 -1.23532799577957E-03  1.35892931894394E+01  6.89468189154686E-01
  7.69457636948979E-03  7.16437796563205E-01  1.35828409699014E+01

             xred      8.6913623420E-01  8.7100178103E-01  8.1876899829E-01
                       3.6980369281E-01  6.2743043831E-01  1.8041168144E-01
                       1.2446202176E-01  3.3499344931E-01  6.0481122702E-01
                       6.2404670152E-01  1.6473010142E-01  3.9541922771E-01
                       1.6133131547E-01  1.1973383585E-01  1.8926716203E-01
                       6.6179061220E-01  3.8027762475E-01  8.1064197318E-01
                       8.3115534301E-01  7.0467811674E-01  2.9821837071E-01
                       3.3113067648E-01  7.9463084184E-01  7.0176983012E-01
                       3.1944708832E-01  3.0599167473E-01  3.0443692672E-01
                       8.1951822702E-01  1.9370310717E-01  6.9744413516E-01
                       6.8341384176E-01  7.8474346110E-01  9.8766180159E-02
                       1.8317768198E-01  7.1370369105E-01  9.0126392519E-01
                       9.7340088302E-01  1.9996733448E-01  3.3946922248E-01
                       4.7352259166E-01  3.0003933909E-01  6.6137924523E-01
                       4.3833723126E-02  5.7155139880E-01  3.0125218576E-01
                       5.4324805819E-01  9.2894797941E-01  6.9824612571E-01
                       3.6826302950E-01  9.6372716325E-01  2.4985451979E-01
                       1.6672643983E-01 -1.7279853356E-02  6.3405688170E-01
                       8.6855491120E-01  5.3673068174E-01  7.4874478424E-01
                       6.6731736293E-01  5.1633319847E-01  3.6674081491E-01
                       1.6344760862E-01  2.3106219120E-01  9.6090675026E-01
                       8.1140684368E-01  8.5855225499E-01  4.7303123304E-01
                       3.1168524052E-01  6.4172102026E-01  5.2618001965E-01
                       6.6266142514E-01  2.7190402074E-01  4.0228196051E-02
                       8.4055040773E-03 -8.4826344645E-02  1.4397052858E-01
                       5.0911294200E-01  5.8595149226E-01  8.5471985488E-01
 
nshiftk 1
shiftk 
0.5 0.5 0.5
#chksymbreak 0
kptopt   1
ngkpt    2 2 2

ecut 30
ixc      -116133
nband    104
nstep    150
diemac   4


# Data set 1 - Refinement of already computed GS WFs       
irdwfk1   0
irdden1   0
iscf1     7
tolvrs1   1.0E-20
nstep1    100

# Data Set 2: Response Function calculation : d/dk 
rfelfd2    2 
rfdir2     1    1    1 

nqpt2      1 
qpt2       0.0  0.0  0.0  

getwfk2   -1 
getden2   -1 

kptopt2    2 

iscf2     -3 

tolwfr2    1.0d-22 

# Data set 3 : Response Function calculation - electric field perturbation, phonons, and strain

rfphon3   1            # Will consider phonon-type perturbation 
rfelfd3   3            # Electric Field
rfstrs3   3            # Strains

rfdir3    1   1   1    # Along all reduced coordinate axis 
rfatpol3  1   26        # All the atoms will be displaced 

nqpt3     1            # One wavevector is to be considered 
qpt3      0.0 0.0 0.0  # This wavevector is q=0 (Gamma) 

kptopt3   2            # Automatic generation of k points, taking 
                       # into account the time-reversal symmetry only 

getwfk3   1            # Read the ground-state wavefunctions 
getddk3   2
                                              
tolvrs3   1.0d-20      # SCF stopping criterion 
                       



# Printing flags
prtden    1
prteig    0
prtwf     1
prtposcar 0
prtcif    0

ecutsm  0.5
            ngfft          72      75      75
pawecutdg  30
pawxcdev   0
