#input for non-centrosymmetric orthorhombic HfO2

ndtset    2

autoparal 1

#Crystal Def.
ntypat   3
natom    26
typat    4*1 4*2 18*3
znucl    57 42 8
acell 3*1

rprim
  1.33266861405879E+01  6.50671112175152E-04  3.39251257637967E-03
  3.21964700724346E-04  1.35488544057522E+01 -4.41248735993079E-01
  3.52157736223204E-03 -4.65787146427594E-01  1.35481757374058E+01

             xred      8.7393668076E-01  8.3764890577E-01  8.9215154573E-01
                       3.7404563716E-01  6.6197776275E-01  1.0716714394E-01
                       1.2964058272E-01  3.7753046532E-01  6.7836854262E-01
                       6.2916829497E-01  1.2107191070E-01  3.2228884939E-01
                       1.6876659435E-01  2.0184447247E-01  2.0409274867E-01
                       6.6888014906E-01  2.9807148682E-01  7.9660227533E-01
                       8.3870315210E-01  6.1831284892E-01  3.1076900465E-01
                       3.3866367832E-01  8.8179315323E-01  6.8888477228E-01
                       3.1699477623E-01  2.8223944272E-01  4.0019185852E-01
                       8.1667823748E-01  2.1749405476E-01  6.0013463729E-01
                       6.8019355390E-01  8.0372558979E-01  1.9306224536E-01
                       1.8030548793E-01  6.9598375441E-01  8.0539143626E-01
                       9.5517370189E-01  7.2105877452E-02  2.0627457734E-01
                       4.5513716662E-01  4.2794487026E-01  7.9581873254E-01
                       2.5171157839E-02  7.0176594581E-01  1.5712891506E-01
                       5.2515635947E-01  7.9771637951E-01  8.4175494457E-01
                       3.3089032898E-01  1.0147915328E+00  1.3604502871E-01
                       1.3390572062E-01  3.9498486626E-02  7.4593194231E-01
                       8.3101298178E-01  4.8547858506E-01  8.6333232854E-01
                       6.3440607698E-01  4.6009649946E-01  2.5422837607E-01
                       1.8655136137E-01  3.5804265822E-01  1.0246465044E+00
                       8.3917106774E-01  7.2591370268E-01  5.3827453167E-01
                       3.4020793417E-01  7.7624584594E-01  4.6052900685E-01
                       6.8759980100E-01  1.4154211816E-01 -2.4282708448E-02
                       9.9512255482E-01  4.1521947042E-01  3.5507517501E-01
                       4.9451696169E-01  1.0859441799E+00  6.4613758541E-01
 
kptopt   1
            ngfft          72      75      75
ngkpt    2 2 2
nshiftk 1
shiftk 
0.5 0.5 0.5
ecut       30
ecutsm  0.5
pawecutdg  30
pawxcdev   0
ixc      -116133
nband    104
diemac   4

# First SCF run       
#irdwfk1   1
nstep1    100
iscf1     7
tolvrs1   1.0E-20

#Refinement using tolwfr
nstep2    250
getwfk2   -1
iscf2     7
tolwfr2   1.0E-20

# Printing flags
prtden    1
prteig    0
prtwf     1
prtposcar 0
prtcif    1
