#input for non-centrosymmetric orthorhombic HfO2

ndtset    1
autoparal 1

#Crystal Def.

nsym      1
ntypat   3
natom    26
typat    4*1 4*2 18*3
znucl    57 42 8

acell 3*1

rprim
  1.33266861468282E+01  6.50668591072518E-04  3.39250885867469E-03
  3.21962265283868E-04  1.35488544105516E+01 -4.41248754381435E-01
  3.52157367397668E-03 -4.65787165052638E-01  1.35481757351929E+01

xred      
  8.73936680914331E-01  8.37648906105404E-01  8.92151545424202E-01
  3.74045637551786E-01  6.61977763003713E-01  1.07167144248174E-01
  1.29640582709904E-01  3.77530465362043E-01  6.78368542564211E-01
  6.29168295237367E-01  1.21071910357136E-01  3.22288849222995E-01
  1.68766594163253E-01  2.01844472613701E-01  2.04092748735893E-01
  6.68880149057889E-01  2.98071486727371E-01  7.96602275675563E-01
  8.38703151380283E-01  6.18312849062141E-01  3.10769004133382E-01
  3.38663677812246E-01  8.81793153425456E-01  6.88884772630620E-01
  3.16994776419903E-01  2.82239442776025E-01  4.00191858318948E-01
  8.16678236994816E-01  2.17494055331987E-01  6.00134638161482E-01
  6.80193554077444E-01  8.03725590254184E-01  1.93062245370727E-01
  1.80305487765402E-01  6.95983753944993E-01  8.05391436201280E-01
  9.55173701518979E-01  7.21058779165299E-02  2.06274577698416E-01
  4.55137167571141E-01  4.27944869795728E-01  7.95818733021052E-01
  2.51711586495372E-02  7.01765945711054E-01  1.57128914612079E-01
  5.25156359991395E-01  7.97716379670424E-01  8.41754944972744E-01
  3.30890329315549E-01  1.01479153285508E+00  1.36045028682924E-01
  1.33905720425916E-01  3.94984866568878E-02  7.45931942325741E-01
  8.31012981587151E-01  4.85478584607438E-01  8.63332328018622E-01
  6.34406076333423E-01  4.60096499073923E-01  2.54228375419305E-01
  1.86551360817787E-01  3.58042657667613E-01  1.02464650484435E+00
  8.39171067873412E-01  7.25913702669602E-01  5.38274532195549E-01
  3.40207933962258E-01  7.76245845831850E-01  4.60529006538796E-01
  6.87599800794944E-01  1.41542118905270E-01 -2.42827088957237E-02
  9.95122555477575E-01  4.15219469493638E-01  3.55075174967822E-01
  4.94516961552330E-01  1.08594418013386E+00  6.46137584979162E-01
kptopt   1
            ngfft          72      75      75

ngkpt    2 2 2
nshiftk 1
shiftk 
0.5 0.5 0.5

ecut       30
pawecutdg  30
pawxcdev   0
ixc      -116133
nband    104
diemac   4

ecutsm  0.5
nstep    100
iscf     7
tolvrs   1.0E-20
ionmov   2
optcell  2
dilatmx  1.04
tolmxf   1e-8
ntime    250
strtarget 3*0.0 3.39893e-05 2*0.0 



# Printing flags
prtden    1
prteig    0
prtwf     1
prtposcar 0
prtcif    1
