#input for non-centrosymmetric orthorhombic HfO2

ndtset    1
autoparal 1

#Crystal Def.

nsym      1
ntypat   3
natom    26
typat    4*1 4*2 18*3
znucl    57 42 8

acell 3*1

rprim
  1.34470630614202E+01 -1.01682052863529E-03  2.74532474545527E-03
 -8.99658935641118E-04  1.35336454046214E+01  6.71145756420121E-01
  2.82797332908967E-03  6.98400819937392E-01  1.35195711784804E+01

xred
  8.70794619283186E-01  8.72547498267928E-01  8.18365309667602E-01
  3.70884798178979E-01  6.27000435128963E-01  1.81311088133598E-01
  1.24001952273789E-01  3.35504263796553E-01  6.05147653971726E-01
  6.23609698493420E-01  1.64367975060590E-01  3.94832680095203E-01
  1.60386032191889E-01  1.19420493820528E-01  1.89325740861270E-01
  6.60868618637645E-01  3.80617344823578E-01  8.10480839854862E-01
  8.31516093729347E-01  7.04149047457810E-01  2.97663301599288E-01
  3.31695970979765E-01  7.95342094813312E-01  7.02482846854723E-01
  3.18411747223138E-01  3.05427010768649E-01  3.05601570059325E-01
  8.18629721298082E-01  1.94570049842561E-01  6.94991790095592E-01
  6.85137472304449E-01  7.85678032227954E-01  9.81797692875717E-02
  1.85030023333461E-01  7.13535548964799E-01  9.01844373661212E-01
  9.75061361364993E-01  2.00414953928415E-01  3.39655396258343E-01
  4.75255873257698E-01  2.99636232542844E-01  6.60561693226147E-01
  4.34846426764181E-02  5.73534650091089E-01  3.01806980397865E-01
  5.43202560706049E-01  9.26847319461815E-01  6.98519103783579E-01
  3.64942739655320E-01  9.62153339415234E-01  2.48690216068526E-01
  1.69211749013205E-01 -1.60454382729133E-02  6.34112967369638E-01
  8.65190806424027E-01  5.38294767867351E-01  7.50688013695716E-01
  6.69339856692775E-01  5.15349293074708E-01  3.66216520591458E-01
  1.62367453066385E-01  2.31720833722102E-01  9.60076797153633E-01
  8.11250300975163E-01  8.59803391170324E-01  4.72681135276000E-01
  3.11758707821970E-01  6.40256312495503E-01  5.26958880347080E-01
  6.62573091832537E-01  2.69674733346750E-01  4.02738806277124E-02
  7.57845554922633E-03 -8.42700268604105E-02  1.42727545525252E-01
  5.07815653067824E-01  5.84469843047186E-01  8.56803905546163E-01

kptopt   1
ngkpt    2 2 2
nshiftk 1
shiftk 
0.5 0.5 0.5

ecut       30
pawecutdg  30
pawxcdev   0
ixc      -116133
nband    104
diemac   4

ecutsm  0.5
nstep    100
iscf     7
tolvrs   1.0E-20
ionmov   2
optcell  2
dilatmx  1.04
tolmxf   1e-8
ntime    150
strtarget 1*5.09839e-05 2*0.0 3*0.0



# Printing flags
prtden    1
prteig    0
prtwf     1
prtposcar 0
prtcif    1
