#input for KTaO3

ndtset    2

autoparal 1

#Crystal Def.
ntypat   3
natom    104
typat    16*1 16*2 72*3
znucl    57 42 8
acell 3*1


rprim
  2.70121040784930E+01 -2.57205868718168E-01  2.53779378215569E-01
 -2.55550986998422E-01  2.67931031770006E+01  2.86733043175342E-01
  1.28163031558042E-01  1.44777542450864E-01  1.35395784694044E+01

             xred      4.4022483813E-01  4.3180390077E-01  8.4576171528E-01
                       1.5782165977E-01  3.1736162361E-01  1.7179777859E-01
                       7.4832986292E-02  1.7048290611E-01  6.2922835073E-01
                       3.1947682942E-01  8.3841048985E-02  3.7946182936E-01
                       9.2503888808E-01  4.1229679084E-01  8.5146989539E-01
                       6.6846299654E-01  3.3767760181E-01  1.1475823730E-01
                       5.6216537249E-01  1.8868572776E-01  6.6087230014E-01
                       8.3336870249E-01  4.4702538884E-02  3.7127632071E-01
                       4.2380830452E-01  9.3511981869E-01  8.3933580516E-01
                       1.6334950017E-01  8.3711737594E-01  1.0877743174E-01
                       8.1845230837E-02  6.7822528975E-01  6.1664512049E-01
                       3.1902925890E-01  5.5911086755E-01  3.7053648767E-01
                       9.1013814737E-01  9.2674886244E-01  8.6322096098E-01
                       6.4066163805E-01  8.1725275641E-01  1.4191400342E-01
                       5.4565540448E-01  6.8138844844E-01  6.4699078800E-01
                       8.1170409299E-01  5.4328150139E-01  3.1929187679E-01
                       9.6647095835E-02  6.7267574064E-02  1.6959912892E-01
                       3.3562209163E-01  1.6622445241E-01  8.4501519900E-01
                       4.2909948519E-01  3.4917276740E-01  3.1632750155E-01
                       1.6436386042E-01  4.4340185147E-01  6.9474982116E-01
                       6.0147995293E-01  9.9701188066E-02  2.0906322929E-01
                       8.3685464854E-01  1.4460644435E-01  8.0279322225E-01
                       9.2400661112E-01  3.2583927368E-01  3.3018030757E-01
                       6.7898814759E-01  4.4282590725E-01  6.7890801409E-01
                       8.4603990122E-02  5.8964269461E-01  1.4663025417E-01
                       3.1263906823E-01  6.6925337274E-01  8.0713673580E-01
                       4.1108762890E-01  8.3194220216E-01  3.1056447283E-01
                       1.6084836344E-01  8.9741734438E-01  6.4931890691E-01
                       5.8131186005E-01  5.6936026759E-01  1.9581737220E-01
                       8.3174122284E-01  6.6221431910E-01  7.9464374642E-01
                       8.9377511086E-01  8.0334776366E-01  3.4702057475E-01
                       6.6875012332E-01  9.2990213414E-01  7.0407914692E-01
                       1.0588874167E-01  3.3762684433E-01  7.7610973198E-01
                       1.6440207226E-01  1.5935980376E-01  3.1741021827E-01
                       3.5359991144E-01  4.1686459339E-01  1.5616266367E-01
                       4.1376380386E-01  9.2235321196E-02  6.7081344195E-01
                       5.9184301037E-01  3.4876308225E-01  7.8868424256E-01
                       6.8263116438E-01  1.5409202588E-01  3.6242247535E-01
                       8.3497158834E-01  3.8640815604E-01  1.7157831476E-01
                       9.3129983248E-01  7.4555912284E-02  6.7160405132E-01
                       5.9379142469E-02  8.4302142668E-01  7.6205500019E-01
                       1.6272620494E-01  6.4453678988E-01  3.0630879568E-01
                       3.2719885243E-01  8.4940873164E-01  1.2106306821E-01
                       3.9852305192E-01  5.8588388847E-01  6.9690260859E-01
                       5.7908427702E-01  8.4103136643E-01  7.8156262370E-01
                       6.5332940276E-01  6.3051560520E-01  3.5939306332E-01
                       8.7321812703E-01  9.0320352417E-01  1.9529684023E-01
                       9.0086836354E-01  6.7071656889E-01  5.7302565390E-01
                       9.0494935801E-02  1.4450012719E-01  9.7294368513E-01
                       9.9536195997E-01  7.8379102634E-02  3.1792348419E-01
                       2.0157786738E-01  9.9292063755E-01  2.1079135594E-01
                       4.0671160463E-01  4.1342713096E-01  5.1765566106E-01
                       3.5363069988E-01  2.4905482152E-01  3.3485523263E-01
                       5.3830085351E-01  2.8520730799E-01  3.4992574459E-01
                       3.6290429150E-01  7.6755284179E-02  2.1079157286E-02
                       4.2512787771E-01  2.6016613679E-01  8.0577688990E-01
                       2.4503584238E-01  1.4973085306E-01  6.6970260756E-01
                       2.6999767560E-01  4.3225871124E-01  8.1486318749E-01
                       1.9348308326E-01  4.2771567843E-01  4.5341806906E-01
                       5.6967795572E-02  5.1668900138E-01  7.1197621430E-01
                      -1.3829499755E-03  3.3990713941E-01  1.0777985657E-01
                       8.9923610603E-01  4.1244175423E-01  5.0437476196E-01
                       8.6326793561E-01  2.1851932525E-01  3.8075370910E-01
                       4.9649892364E-01  8.1418417649E-02  3.3569769218E-01
                       5.8585790191E-01  1.7796958398E-01  1.0151366566E+00
                       6.5701761260E-01  9.9488412326E-01  1.4727091075E-01
                       7.6147969357E-01  3.8508490372E-01  8.3472502548E-01
                       6.8531003483E-01  4.0877969882E-01  4.4262382921E-01
                       5.8242421014E-01  5.2302332950E-01  7.2652665816E-01
                       8.4103276567E-01  8.9967876709E-02  2.6975673908E-02
                       9.1668108650E-01  2.4363132151E-01  7.9304336526E-01
                       7.2816980996E-01  1.9908002290E-01  7.7435556609E-01
                       3.0862950230E-01  6.2569868593E-01  3.6618520949E-02
                       4.0177827823E-01  7.6079558163E-01  7.8514929048E-01
                       2.2403948180E-01  5.9234253008E-01  6.5232569173E-01
                       1.3564633532E-01  4.8652196658E-01  6.1123143578E-02
                       6.5541094916E-02  6.7201137026E-01  9.6572300344E-01
                       9.8165375439E-01  5.5773010623E-01  2.7122782719E-01
                       3.8215789103E-01  9.1984874153E-01  4.7540838962E-01
                       3.5620912153E-01  7.2416272093E-01  3.9565959058E-01
                       4.9583249507E-01  8.8626227721E-01  1.1875305436E-01
                       1.2129155012E-01  5.4052232276E-03  5.6537963594E-01
                       2.5032323178E-01  9.3164112665E-01  8.0535293620E-01
                       1.8306498482E-01  8.2715216325E-01  4.5194450488E-01
                       6.8577338613E-01  5.0733835341E-01  1.0499911418E-01
                       4.8191317086E-01  5.7203142857E-01  3.5543315733E-01
                       5.5491053895E-01  6.5711077810E-01  1.0261775085E+00
                       8.6406135328E-01  5.6895026851E-01 -4.5735494743E-02
                       8.8673399562E-01  7.5840828318E-01  9.0327071566E-01
                       7.1371330218E-01  6.9695752651E-01  7.9810408077E-01
                       5.8420192011E-01  2.2191877353E-02  7.3267757899E-01
                       7.4372026483E-01  8.8742829561E-01  8.9197934028E-01
                       6.9250696418E-01  8.9843779129E-01  4.6947444643E-01
                       1.1403839316E-02  7.6878731440E-01  3.0861063661E-01
                       8.8163815508E-01  8.6773112549E-01  5.5555565371E-01
                       8.0394828997E-01  7.2530556560E-01  2.7300555022E-01
                       4.9731392939E-02 -4.2838348547E-02  5.5144447094E-02
                       2.6458837490E-01  2.3726838032E-01  9.9035728647E-01
                       1.0404721170E+00  2.9582155724E-01  4.2742802676E-01
                       7.6625592302E-01  5.4177047926E-01  6.4533341384E-01
                       2.1346752441E-01  7.5207157141E-01  7.9829015362E-01
                       5.2871757464E-01  7.8489482672E-01  3.8845562311E-01
                       5.2778339268E-01  4.3374853166E-01  1.4423944110E-01
                       7.6917252242E-01  1.0318593537E+00  6.7877940742E-01
 

kptopt   1
ngfft         144     144      72
ngkpt    1 1 2
nshiftk 1
shiftk 
0.5 0.5 0.5
ecut       30
ecutsm   0.5
pawecutdg  30
pawxcdev   0
ixc      -116133
nband    420
diemac   4


#Refinement using tolwfr
irdwfk1   1
nstep1    50
getwfk1   -1
iscf1     7
tolwfr1   1.0E-20

# Data set 2 : Response Function calculation - electric field perturbation, phonons, and strain

rfphon2   1            # Will consider phonon-type perturbation
rfelfd2   0            # Electric Field
rfstrs2   0            # Strains

rfdir2    1   1   1    # Along all reduced coordinate axis
rfatpol2  1   3        # All the atoms will be displaced

nqpt2     1            # One wavevector is to be considered
qpt2      0.0 0.0 0.0  # This wavevector is q=0 (Gamma)

kptopt2   2            # Automatic generation of k points, taking
                       # into account the time-reversal symmetry only

getwfk2   1            # Read the ground-state wavefunctions

#getddk2   2

tolvrs2   1.0d-20      # SCF stopping criterion



# Printing flags
prtden    1
prteig    0
prtwf     1
prtposcar 0
prtcif    0
