#input for non-centrosymmetric orthorhombic HfO2

ndtset    2

autoparal 1

#Crystal Def.
ntypat   3
natom    26
typat    4*1 4*2 18*3
znucl    57 42 8
acell 3*1

rprim
  1.33116239942323E+01  7.39864110051241E-02 -1.49372344283324E-02
  7.44764125060411E-02  1.35766054628055E+01  6.84309486273786E-01
 -1.17968762045448E-02  7.11440255893150E-01  1.35666997137675E+01

             xred      8.7078826610E-01  8.7223842322E-01  8.1907257278E-01
                       3.6839520051E-01  6.2831789848E-01  1.8110797690E-01
                       1.2422772676E-01  3.3539184396E-01  6.0513218835E-01
                       6.2416999255E-01  1.6494102743E-01  3.9535642664E-01
                       1.6083230570E-01  1.1924813291E-01  1.8959573259E-01
                       6.6199416061E-01  3.8010163420E-01  8.1083393365E-01
                       8.3027715624E-01  7.0416032901E-01  2.9784852881E-01
                       3.3208180268E-01  7.9466416429E-01  7.0172413450E-01
                       3.1896711811E-01  3.0585538152E-01  3.0372942129E-01
                       8.1963914647E-01  1.9397042694E-01  6.9572509941E-01
                       6.8412712553E-01  7.8580039793E-01  9.7525583805E-02
                       1.8324913060E-01  7.1418307107E-01  9.0015918420E-01
                       9.7391108424E-01  2.0085616440E-01  3.3976001061E-01
                       4.7390605937E-01  3.0094559676E-01  6.6140068353E-01
                       4.3145691946E-02  5.7024501448E-01  3.0027698296E-01
                       5.4351208358E-01  9.2726928643E-01  6.9747679582E-01
                       3.6867034058E-01  9.6262655954E-01  2.5080178587E-01
                       1.6737380432E-01 -1.5667965741E-02  6.3457989048E-01
                       8.6682231939E-01  5.3638576226E-01  7.5031182120E-01
                       6.6747379264E-01  5.1730686677E-01  3.6685763700E-01
                       1.6180080669E-01  2.2995101549E-01  9.6063589798E-01
                       8.1227823158E-01  8.5887044824E-01  4.7274649823E-01
                       3.1074857565E-01  6.4170626924E-01  5.2608158295E-01
                       6.6420669042E-01  2.7001988631E-01  4.0005461042E-02
                       9.5002043725E-03 -8.4999689290E-02  1.4484812841E-01
                       5.0790118341E-01  5.8561205414E-01  8.5640604101E-01
 
kptopt   1
            ngfft          72      75      75
ngkpt    2 2 2
nshiftk 1
shiftk 
0.5 0.5 0.5
ecut       30
ecutsm  0.5
pawecutdg  30
pawxcdev   0
ixc      -116133
nband    104
diemac   4

# First SCF run       
#irdwfk1   1
nstep1    100
iscf1     7
tolvrs1   1.0E-20

#Refinement using tolwfr
nstep2    250
getwfk2   -1
iscf2     7
tolwfr2   1.0E-20

# Printing flags
prtden    1
prteig    0
prtwf     1
prtposcar 0
prtcif    1
