#input for non-centrosymmetric orthorhombic HfO2

ndtset    1
autoparal 1

#Crystal Def.

nsym      1
ntypat   3
natom    26
typat    4*1 4*2 18*3
znucl    57 42 8

acell 3*1

rprim
  1.36290132250337E+01 -8.80562225915311E-03  9.78524362984399E-01
 -8.69697404738919E-03  1.32745284813144E+01  1.43992887084524E-03
  9.73449398532177E-01  2.08544767060892E-04  1.36008587188243E+01

             xred 
  8.14371381496598E-01  8.67101037376697E-01  8.62925039580945E-01
  3.96264695250181E-01  6.22778507359124E-01  1.69541743569342E-01
  1.86558939735065E-01  3.65808904872744E-01  6.39251757226472E-01
  6.03582209275866E-01  1.22440344068067E-01  3.31035680070336E-01
  1.90139103753779E-01  1.62863315831424E-01  1.22467651305188E-01
  7.01534650045482E-01  3.30718499814509E-01  7.90847804056970E-01
  8.09787753286463E-01  6.62115022414042E-01  3.77810386287343E-01
  2.98680237084216E-01  8.30833521705528E-01  7.09686845678099E-01
  3.00241601884869E-01  3.18786244537055E-01  3.10741602764377E-01
  9.03531298454486E-01  1.84165704015792E-01  7.07720562849102E-01
  6.97336027142560E-01  8.18919053673250E-01  1.90263009734806E-01
  9.62986727165143E-02  6.84457806290553E-01  7.93429670280653E-01
  9.59217680800995E-01  1.66376706984631E-01  2.34540164334244E-01
  5.30394712538889E-01  3.08041609724268E-01  6.40523030997144E-01
  3.93620115782682E-02  6.67641164451962E-01  2.62423263377556E-01
  4.69987867880437E-01  8.08601675327964E-01  8.59891277751559E-01
  3.35103091250939E-01  9.73232582486633E-01  1.97828188940713E-01
  3.08536501814910E-01  3.97991583024724E-02  5.69513036888005E-01
  6.92546504580088E-01  5.40873428180812E-01  9.28781481041907E-01
  6.63909630745482E-01  4.72969705158359E-01  3.01447069129046E-01
  2.58140034255010E-01  3.71796492546778E-01  9.67919391170285E-01
  7.43352674022647E-01  8.70907066178804E-01  5.32385501099475E-01
  3.66452357163543E-01  6.63394528170301E-01  5.21088208053108E-01
  6.33081095559177E-01  1.64365544697349E-01 -1.98987010204836E-02
  1.45261283043595E-01  1.64783231124111E-02 -8.66107904100052E-02
  8.56327984652897E-01  5.14534052744811E-01  5.84447125244727E-01



kptopt   1
ngkpt    2 2 2
nshiftk 1
shiftk 
0.5 0.5 0.5

ecut       30
pawecutdg  30
pawxcdev   0
ixc      -116133
nband    104
diemac   4

ecutsm  0.5
nstep    100
iscf     7
tolvrs   1.0E-20
ionmov   2
optcell  2
dilatmx  1.04
tolmxf   1e-8
ntime    150
strtarget 3*0.0  0.0  3.39893e-05  0.0



# Printing flags
prtden    1
prteig    0
prtwf     1
prtposcar 0
prtcif    1
