#input for non-centrosymmetric orthorhombic HfO2

ndtset    1

autoparal 1

#Crystal Def.
ntypat   3
natom    26
typat    4*1 4*2 18*3
znucl    57 42 8
nsym 0

acell 3*1

rprim
  1.33003504053717E+01  0.00000000000000E+00  0.00000000000000E+00
  0.00000000000000E+00  1.35888074836986E+01  8.09651997515535E-01
  0.00000000000000E+00  8.36292562797852E-01  1.35874577607904E+01

             xred      8.6888152354E-01  8.6809176334E-01  8.1710740889E-01
                       3.6888152354E-01  6.3190823666E-01  1.8289259111E-01
                       1.2340849102E-01  3.3350898287E-01  6.0404040462E-01
                       6.2340849102E-01  1.6649101713E-01  3.9595959538E-01
                       1.6158432484E-01  1.2072935679E-01  1.8963046308E-01
                       6.6158432484E-01  3.7927064321E-01  8.1036953692E-01
                       8.3114700542E-01  7.0683851337E-01  2.9845471923E-01
                       3.3114700542E-01  7.9316148663E-01  7.0154528077E-01
                       3.1908465113E-01  3.0768336115E-01  3.0275124591E-01
                       8.1908465113E-01  1.9231663885E-01  6.9724875409E-01
                       6.8380898542E-01  7.8869469538E-01  9.7864234086E-02
                       1.8380898542E-01  7.1130530462E-01  9.0213576591E-01
                       9.7356167643E-01  1.9921584096E-01  3.3781263426E-01
                       4.7356167643E-01  3.0078415904E-01  6.6218736574E-01
                       4.2442072263E-02  5.7164981755E-01  3.0412669944E-01
                       5.4244207226E-01  9.2835018245E-01  6.9587330056E-01
                       3.6862908312E-01  9.6492353746E-01  2.5341960466E-01
                       1.6642466408E-01 -1.7967349327E-02  6.3341525560E-01
                       8.6862908312E-01  5.3507646254E-01  7.4658039534E-01
                       6.6642466408E-01  5.1796734933E-01  3.6658474440E-01
                       1.6468749308E-01  2.3270691748E-01  9.5994101815E-01
                       8.1051418995E-01  8.5905372065E-01  4.7197429885E-01
                       3.1051418995E-01  6.4094627935E-01  5.2802570115E-01
                       6.6468749308E-01  2.6729308252E-01  4.0058981851E-02
                       1.0825839729E-02 -8.4855336554E-02  1.4370792293E-01
                       5.1082583973E-01  5.8485533655E-01  8.5629207707E-01


kptopt   1
ngkpt    2 2 2
nshiftk 1
shiftk 
0.5 0.5 0.5

ecut       30
pawecutdg  30
pawxcdev   0
ixc      -116133
nband    104
diemac   4
ecutsm   0.5

# First SCF run       
#irdwfk1   1
nstep    100
iscf     7
tolvrs   1.0E-20
ionmov   2
optcell  2
dilatmx  1.04
tolmxf   1e-8
ntime    150
strtarget 3*0.0  0.00003398929675450266 2*0.0

# Printing flags
prtden    1
prteig    0
prtwf     1
prtposcar 0
prtcif    0
