#input for non-centrosymmetric orthorhombic HfO2

ndtset    1
nsym      1
autoparal 1

#Crystal Def.
ntypat   3
natom    26
typat    4*1 4*2 18*3
znucl    57 42 8

acell 3*1


rprim
  1.32863499567098E+01 -6.88039148865190E-04  5.10059116058266E-03
 -4.31625222176961E-04  1.36853823512059E+01  6.90414307525675E-01
  5.16684492351052E-03  7.24987735086035E-01  1.35321735696615E+01

xred      
  8.70120202339237E-01  8.72718818911778E-01  8.18266310313179E-01
  3.70390716441173E-01  6.26151489346093E-01  1.81061611260037E-01
  1.24701328596271E-01  3.34666226293338E-01  6.04596386196168E-01
  6.24263285929516E-01  1.65300687574294E-01  3.95612103023819E-01
  1.61411880635337E-01  1.18696404177109E-01  1.89228051242929E-01
  6.61849868879939E-01  3.81214663588923E-01  8.10727608423015E-01
  8.30790062005076E-01  7.04653824087461E-01  2.98507683503417E-01
  3.30968464271869E-01  7.94779379578981E-01  7.01497230581089E-01
  3.19425697190990E-01  3.05658385966138E-01  3.03431541906693E-01
  8.19570329201527E-01  1.94319116003615E-01  6.97859671034995E-01
  6.83630591650676E-01  7.83000007175798E-01  9.77526454824998E-02
  1.83462669310605E-01  7.15429850131199E-01  9.02050851700476E-01
  9.73976395099552E-01  1.99996907122920E-01  3.39721862917121E-01
  4.74060515272244E-01  2.99973458818602E-01  6.60896901845263E-01
  4.34961689734570E-02  5.72873889387878E-01  3.00400279764233E-01
  5.43199377749079E-01  9.27521864715253E-01  6.99414786241556E-01
  3.67990050117884E-01  9.64109914609656E-01  2.49972778512660E-01
  1.67517509475836E-01 -1.79442157069952E-02  6.32986080025904E-01
  8.68081513511820E-01  5.36506452293489E-01  7.49231048009511E-01
  6.67769762384707E-01  5.17338440160054E-01  3.67876267025891E-01
  1.63586982387718E-01  2.28435083922583E-01  9.59552720082178E-01
  8.10636084175775E-01  8.58756288094109E-01  4.72920015167747E-01
  3.10941687103315E-01  6.41750166132939E-01  5.26210356119397E-01
  6.62960576911822E-01  2.73578240073897E-01  4.12860707209807E-02
  7.46596232682520E-03 -8.37042216203068E-02  1.44416983783412E-01
  5.07732318058865E-01  5.84218879166361E-01  8.54522155132761E-01


kptopt   1
ngkpt    2 2 2
nshiftk 1
shiftk 
0.5 0.5 0.5

ecut       30
pawecutdg  30
pawxcdev   0
ixc      -116133
nband    104
diemac   4

ecutsm  0.5
nstep    100
iscf     7
tolvrs   1.0E-20
ionmov   2
optcell  2
dilatmx  1.04
tolmxf   1e-8
ntime    150
strtarget 0.000 1*3.39893e-05 0.00 3*0.0



# Printing flags
prtden    1
prteig    0
prtwf     1
prtposcar 0
prtcif    1
