#input for non-centrosymmetric orthorhombic HfO2

ndtset    2

autoparal 1

#Crystal Def.
ntypat   3
natom    26
typat    4*1 4*2 18*3
znucl    57 42 8
acell 3*1

rprim
  1.32689361996543E+01 -1.59955448896910E-03  7.66158864221554E-03
 -1.23532799577957E-03  1.35892931894394E+01  6.89468189154686E-01
  7.69457636948979E-03  7.16437796563205E-01  1.35828409699014E+01

             xred      8.6913623420E-01  8.7100178103E-01  8.1876899829E-01
                       3.6980369281E-01  6.2743043831E-01  1.8041168144E-01
                       1.2446202176E-01  3.3499344931E-01  6.0481122702E-01
                       6.2404670152E-01  1.6473010142E-01  3.9541922771E-01
                       1.6133131547E-01  1.1973383585E-01  1.8926716203E-01
                       6.6179061220E-01  3.8027762475E-01  8.1064197318E-01
                       8.3115534301E-01  7.0467811674E-01  2.9821837071E-01
                       3.3113067648E-01  7.9463084184E-01  7.0176983012E-01
                       3.1944708832E-01  3.0599167473E-01  3.0443692672E-01
                       8.1951822702E-01  1.9370310717E-01  6.9744413516E-01
                       6.8341384176E-01  7.8474346110E-01  9.8766180159E-02
                       1.8317768198E-01  7.1370369105E-01  9.0126392519E-01
                       9.7340088302E-01  1.9996733448E-01  3.3946922248E-01
                       4.7352259166E-01  3.0003933909E-01  6.6137924523E-01
                       4.3833723126E-02  5.7155139880E-01  3.0125218576E-01
                       5.4324805819E-01  9.2894797941E-01  6.9824612571E-01
                       3.6826302950E-01  9.6372716325E-01  2.4985451979E-01
                       1.6672643983E-01 -1.7279853356E-02  6.3405688170E-01
                       8.6855491120E-01  5.3673068174E-01  7.4874478424E-01
                       6.6731736293E-01  5.1633319847E-01  3.6674081491E-01
                       1.6344760862E-01  2.3106219120E-01  9.6090675026E-01
                       8.1140684368E-01  8.5855225499E-01  4.7303123304E-01
                       3.1168524052E-01  6.4172102026E-01  5.2618001965E-01
                       6.6266142514E-01  2.7190402074E-01  4.0228196051E-02
                       8.4055040773E-03 -8.4826344645E-02  1.4397052858E-01
                       5.0911294200E-01  5.8595149226E-01  8.5471985488E-01
 
kptopt   1
            ngfft          72      75      75
ngkpt    2 2 2
nshiftk 1
shiftk 
0.5 0.5 0.5
ecut       30
ecutsm  0.5
pawecutdg  30
pawxcdev   0
ixc      -116133
nband    104
diemac   4

# First SCF run       
#irdwfk1   1
nstep1    100
iscf1     7
tolvrs1   1.0E-20

#Refinement using tolwfr
nstep2    250
getwfk2   -1
iscf2     7
tolwfr2   1.0E-20

# Printing flags
prtden    1
prteig    0
prtwf     1
prtposcar 0
prtcif    1
