#input for KTaO3

ndtset    3

autoparal 1

#Crystal Def.
ntypat   3
natom    26
typat    4*1 4*2 18*3
znucl    57 42 8
acell 3*1


rprim
  1.33356440472185E+01  1.69758615360027E-04  9.51020006749037E-04
 -8.58354013649943E-05  1.34730812771850E+01 -6.84209862851499E-01
  1.06465207226072E-03 -7.01788839490882E-01  1.36054509078689E+01

             xred      8.7639319655E-01  8.3568366907E-01  8.9496529029E-01
                       3.7634048071E-01  6.6439963759E-01  1.0521589688E-01
                       1.3100715013E-01  3.7057693248E-01  6.8099548325E-01
                       6.3068473725E-01  1.2927230975E-01  3.1900228045E-01
                       1.6835148958E-01  2.0530515126E-01  2.0289004165E-01
                       6.6845762309E-01  2.9506040800E-01  7.9694946075E-01
                       8.3875109134E-01  6.2043401448E-01  3.1079152731E-01
                       3.3882140061E-01  8.7929336961E-01  6.8935902172E-01
                       3.1612105216E-01  2.8853870261E-01  4.0100931129E-01
                       8.1609639876E-01  2.1149025780E-01  5.9884580745E-01
                       6.8111154172E-01  8.0638169332E-01  1.9486299478E-01
                       1.8116128889E-01  6.9353429540E-01  8.0539033959E-01
                       9.5628283185E-01  7.1297350611E-02  1.9655451547E-01
                       4.5665054425E-01  4.2943104557E-01  8.0275939351E-01
                       2.6284008011E-02  6.9992420887E-01  1.6167480277E-01
                       5.2627727239E-01  8.0031247821E-01  8.3877325827E-01
                       3.3270836521E-01  1.0158988642E+00  1.3613664136E-01
                       1.3254067221E-01  3.6999559333E-02  7.5078862734E-01
                       8.3301543845E-01  4.8424936799E-01  8.6395452123E-01
                       6.3277476554E-01  4.6254130396E-01  2.4905529699E-01
                       1.8829738107E-01  3.5893816449E-01  1.0271160105E+00
                       8.3687007868E-01  7.3199170725E-01  5.3902446840E-01
                       3.3716879901E-01  7.6726062753E-01  4.6125585275E-01
                       6.8776695363E-01  1.4116437014E-01 -2.7459032280E-02
                       9.9020170272E-01  4.1346008921E-01  3.5658360983E-01
                       4.8986373615E-01  1.0865604212E+00  6.4350457853E-01
 
nshiftk 1
shiftk 
0.5 0.5 0.5
#chksymbreak 0
kptopt   1
ngkpt    2 2 2

ecut 30
ixc      -116133
nband    104
nstep    150
diemac   4


# Data set 1 - Refinement of already computed GS WFs       
irdwfk1   0
irdden1   0
iscf1     7
tolvrs1   1.0E-20
nstep1    100

# Data Set 2: Response Function calculation : d/dk 
rfelfd2    2 
rfdir2     1    1    1 

nqpt2      1 
qpt2       0.0  0.0  0.0  

getwfk2   -1 
getden2   -1 

kptopt2    2 

iscf2     -3 

tolwfr2    1.0d-22 

# Data set 3 : Response Function calculation - electric field perturbation, phonons, and strain

rfphon3   1            # Will consider phonon-type perturbation 
rfelfd3   3            # Electric Field
rfstrs3   3            # Strains

rfdir3    1   1   1    # Along all reduced coordinate axis 
rfatpol3  1   26        # All the atoms will be displaced 

nqpt3     1            # One wavevector is to be considered 
qpt3      0.0 0.0 0.0  # This wavevector is q=0 (Gamma) 

kptopt3   2            # Automatic generation of k points, taking 
                       # into account the time-reversal symmetry only 

getwfk3   1            # Read the ground-state wavefunctions 
getddk3   2
                                              
tolvrs3   1.0d-20      # SCF stopping criterion 
                       



# Printing flags
prtden    1
prteig    0
prtwf     1
prtposcar 0
prtcif    0

ecutsm  0.5
            ngfft          72      75      75
pawecutdg  30
pawxcdev   0
