#input for KTaO3

ndtset    3

autoparal 1

#Crystal Def.
ntypat   3
natom    26
typat    4*1 4*2 18*3
znucl    57 42 8
acell 3*1


rprim
  1.35747163497957E+01 -6.91983787775858E-01  1.56423429471103E-01
 -7.16195171030713E-01  1.35769155620764E+01  3.62345819056058E-02
  1.54503295777507E-01  4.39670541608559E-02  1.33140995298163E+01

             xred      8.3428595337E-01  8.9599616981E-01  8.7575785714E-01
                       3.6992284656E-01  6.8224318246E-01  1.3434842939E-01
                       1.2818099063E-01  3.1862362942E-01  6.2829855921E-01
                       6.6483562113E-01  1.0575185924E-01  3.7619098388E-01
                       2.0629071159E-01  2.0162489098E-01  1.6712255316E-01
                       6.2091015509E-01  3.1192427368E-01  8.3723020732E-01
                       8.8070890491E-01  6.9005739275E-01  3.3919051884E-01
                       2.9513253189E-01  7.9628158553E-01  6.7115856752E-01
                       2.8645168848E-01  3.9899336279E-01  3.1664391876E-01
                       8.0659124036E-01  1.9472235377E-01  6.8014675440E-01
                       6.9376343794E-01  8.0374761455E-01  1.8122945445E-01
                       2.1139605021E-01  5.9532642873E-01  8.1605607654E-01
                       1.0144917854E+00  1.3688579236E-01  3.3263462365E-01
                       4.6527850433E-01  2.5125656338E-01  6.3384304085E-01
                       3.7970859608E-02  7.5350830755E-01  1.3002326234E-01
                       4.7980144603E-01  8.6652850837E-01  8.3371732199E-01
                       3.5851956397E-01  1.0262622337E+00  1.9261979523E-01
                       1.4057750987E-01 -2.8551516541E-02  6.8575796897E-01
                       7.3227631118E-01  5.4046341117E-01  8.3307910832E-01
                       7.7042046336E-01  4.6103142306E-01  3.3838760225E-01
                       7.4933547592E-02  1.9403797480E-01  9.5603962165E-01
                       7.9862291636E-01  8.4008209814E-01  5.2583016572E-01
                       4.3125446175E-01  7.9724494385E-01  4.5853881174E-01
                       6.9839551077E-01  1.6315629226E-01  2.6159720299E-02
                       4.1417416488E-01  3.5768005867E-01  9.9184969645E-01
                       1.0848128227E+00  6.4512116550E-01  4.8814537994E-01
 
nshiftk 1
shiftk 
0.5 0.5 0.5
#chksymbreak 0
kptopt   1
ngkpt    2 2 2

ecut 30
ixc      -116133
nband    104
nstep    150
diemac   4


# Data set 1 - Refinement of already computed GS WFs       
irdwfk1   0
irdden1   0
iscf1     7
tolvrs1   1.0E-20
nstep1    100

# Data Set 2: Response Function calculation : d/dk 
rfelfd2    2 
rfdir2     1    1    1 

nqpt2      1 
qpt2       0.0  0.0  0.0  

getwfk2   -1 
getden2   -1 

kptopt2    2 

iscf2     -3 

tolwfr2    1.0d-22 

# Data set 3 : Response Function calculation - electric field perturbation, phonons, and strain

rfphon3   1            # Will consider phonon-type perturbation 
rfelfd3   3            # Electric Field
rfstrs3   3            # Strains

rfdir3    1   1   1    # Along all reduced coordinate axis 
rfatpol3  1   26        # All the atoms will be displaced 

nqpt3     1            # One wavevector is to be considered 
qpt3      0.0 0.0 0.0  # This wavevector is q=0 (Gamma) 

kptopt3   2            # Automatic generation of k points, taking 
                       # into account the time-reversal symmetry only 

getwfk3   1            # Read the ground-state wavefunctions 
getddk3   2
                                              
tolvrs3   1.0d-20      # SCF stopping criterion 
                       



# Printing flags
prtden    1
prteig    0
prtwf     1
prtposcar 0
prtcif    0

ecutsm  0.5
            ngfft          72      75      75
pawecutdg  30
pawxcdev   0
