#input for non-centrosymmetric orthorhombic HfO2

ndtset    2

autoparal 1

#Crystal Def.
ntypat   3
natom    26
typat    4*1 4*2 18*3
znucl    57 42 8
acell 3*1

rprim
  1.32798388283278E+01  1.15630671482133E-03  1.12243003288569E-02
  3.42373210102146E-04  1.35990548329149E+01 -9.58739334934939E-01
  1.14927300077767E-02 -9.81769153290449E-01  1.36276330299732E+01

             xred      8.7729110476E-01  8.3048878198E-01  8.9656894966E-01
                       3.7755761283E-01  6.6872143295E-01  1.0344594957E-01
                       1.3408437970E-01  3.6105142039E-01  6.8652573748E-01
                       6.3204531347E-01  1.3632823697E-01  3.1428585624E-01
                       1.6889186117E-01  2.0926519003E-01  2.0179642108E-01
                       6.6918063567E-01  2.9024737136E-01  7.9794777176E-01
                       8.3818153888E-01  6.2247269206E-01  3.1067885939E-01
                       3.3738124994E-01  8.7732450203E-01  6.8977954823E-01
                       3.1572201186E-01  2.9158189710E-01  4.0367259017E-01
                       8.1544726278E-01  2.0694664038E-01  5.9543133519E-01
                       6.8101352451E-01  8.0935143096E-01  1.9723015432E-01
                       1.8128166682E-01  6.8945008515E-01  8.0063362205E-01
                       9.5836495636E-01  7.2113482871E-02  1.9285188443E-01
                       4.6012638171E-01  4.3021087932E-01  8.0806520055E-01
                       2.6996369003E-02  6.9926931323E-01  1.6441627002E-01
                       5.2672593082E-01  8.0202601243E-01  8.3509152854E-01
                       3.3473800583E-01  1.0196833018E+00  1.3286093917E-01
                       1.2852103274E-01  3.2008743718E-02  7.5703960154E-01
                       8.3643103131E-01  4.7885157061E-01  8.6625874267E-01
                       6.3005196635E-01  4.6736041041E-01  2.4457803141E-01
                       1.9180954689E-01  3.5963933608E-01  1.0305308497E+00
                       8.3242254034E-01  7.3805301618E-01  5.4013742876E-01
                       3.3417821560E-01  7.6486280938E-01  4.5908509184E-01
                       6.9101122907E-01  1.3995231838E-01 -3.0675809674E-02
                       9.8662200016E-01  4.1652145739E-01  3.5693379961E-01
                       4.8392263136E-01  1.0862176668E+00  6.4482964636E-01
 
kptopt   1
            ngfft          72      75      75
ngkpt    2 2 2
nshiftk 1
shiftk 
0.5 0.5 0.5
ecut       30
ecutsm  0.5
pawecutdg  30
pawxcdev   0
ixc      -116133
nband    104
diemac   4

# First SCF run       
#irdwfk1   1
nstep1    100
iscf1     7
tolvrs1   1.0E-20

#Refinement using tolwfr
nstep2    250
getwfk2   -1
iscf2     7
tolwfr2   1.0E-20

# Printing flags
prtden    1
prteig    0
prtwf     1
prtposcar 0
prtcif    1
