#input for non-centrosymmetric orthorhombic HfO2

ndtset    1
autoparal 1

#Crystal Def.

nsym      1
ntypat   3
natom    26
typat    4*1 4*2 18*3
znucl    57 42 8

acell 3*1

rprim
  1.32798388369916E+01  1.15631454310636E-03  1.12243029227049E-02
  3.42381054202616E-04  1.35990548367340E+01 -9.58739352698759E-01
  1.14927320914916E-02 -9.81769170665401E-01  1.36276330398360E+01

xred      
  8.77291104740147E-01  8.30488781912510E-01  8.96568949225640E-01
  3.77557613017626E-01  6.68721433120267E-01  1.03445949818683E-01
  1.34084379257107E-01  3.61051420381059E-01  6.86525737721798E-01
  6.32045313592434E-01  1.36328236891687E-01  3.14285855741382E-01
  1.68891861518251E-01  2.09265189574536E-01  2.01796420765330E-01
  6.69180636326318E-01  2.90247371855861E-01  7.97947772359658E-01
  8.38181538386441E-01  6.22472691940437E-01  3.10678859685604E-01
  3.37381248988320E-01  8.77324501847291E-01  6.89779548400608E-01
  3.15722011985840E-01  2.91581897084008E-01  4.03672590073651E-01
  8.15447262560607E-01  2.06946640159236E-01  5.95431334937437E-01
  6.81013524280632E-01  8.09351431040515E-01  1.97230154109196E-01
  1.81281667020865E-01  6.89450085059414E-01  8.00633622039173E-01
  9.58364956621116E-01  7.21134828641094E-02  1.92851884538142E-01
  4.60126381886585E-01  4.30210879160612E-01  8.08065200491002E-01
  2.69963693768626E-02  6.99269313162320E-01  1.64416269411690E-01
  5.26725930576954E-01  8.02026012340701E-01  8.35091528333588E-01
  3.34738005627056E-01  1.01968330238319E+00  1.32860939411603E-01
  1.28521033013761E-01  3.20087439039430E-02  7.57039601374585E-01
  8.36431030868268E-01  4.78851570176118E-01  8.66258742932371E-01
  6.30051966083403E-01  4.67360410231588E-01  2.44578031036793E-01
  1.91809546955398E-01  3.59639335896499E-01  1.03053085008936E+00
  8.32422540167918E-01  7.38053016818641E-01  5.40137429175660E-01
  3.34178215490707E-01  7.64862809495378E-01  4.59085092134375E-01
  6.91011229248199E-01  1.39952318214671E-01 -3.06758099763799E-02
  9.86622000990745E-01  4.16521456961220E-01  3.56933799704031E-01
  4.83922631374236E-01  1.08621766747680E+00  6.44829646533321E-01
kptopt   1
            ngfft          72      75      75

ngkpt    2 2 2
nshiftk 1
shiftk 
0.5 0.5 0.5

ecut       30
pawecutdg  30
pawxcdev   0
ixc      -116133
nband    104
diemac   4

ecutsm  0.5
nstep    100
iscf     7
tolvrs   1.0E-20
ionmov   2
optcell  2
dilatmx  1.04
tolmxf   1e-8
ntime    250
strtarget 3*0.0 -3.39893e-05 2*0.0 



# Printing flags
prtden    1
prteig    0
prtwf     1
prtposcar 0
prtcif    1
