#input for KTaO3

ndtset    3

autoparal 1

#Crystal Def.
ntypat   3
natom    26
typat    4*1 4*2 18*3
znucl    57 42 8
acell 3*1


rprim
  1.35757011912816E+01  1.74859077385186E-01  6.72474185727685E-01
  1.72872023079587E-01  1.33038360323061E+01 -2.59235648194615E-02
  6.65704400867709E-01 -1.79117382753775E-02  1.35783053473695E+01

             xred      8.1467114259E-01  8.6083366289E-01  8.6249338778E-01
                       3.9542298599E-01  6.2371717201E-01  1.6218283454E-01
                       1.7485508477E-01  3.7667321295E-01  6.1410289548E-01
                       6.0759112325E-01  1.2625475736E-01  3.3224177600E-01
                       1.8887324923E-01  1.6021549004E-01  1.1839185772E-01
                       7.0112467218E-01  3.2897214058E-01  7.9438234377E-01
                       8.0986883373E-01  6.6256743659E-01  3.8079459063E-01
                       2.9747027674E-01  8.3267528811E-01  7.0240221152E-01
                       3.1450356137E-01  3.2076094095E-01  3.0105693960E-01
                       9.0373259563E-01  1.8420004524E-01  7.0917846359E-01
                       7.0717471589E-01  8.1836050309E-01  1.9026229363E-01
                       1.0184896057E-01  6.8353967274E-01  7.7889864045E-01
                       9.6683259795E-01  1.7405113580E-01  2.4300396097E-01
                       5.2503946643E-01  3.1096268896E-01  6.4104062127E-01
                       4.5127978341E-02  6.5116960068E-01  2.8704112940E-01
                       4.7182174555E-01  8.1218075700E-01  8.5813924057E-01
                       3.4429200292E-01  9.7316440972E-01  2.0175778498E-01
                       2.9377765583E-01  4.8198433783E-02  5.7730395037E-01
                       6.9147346424E-01  5.3840447331E-01  9.3492392096E-01
                       6.6525712779E-01  4.7522345326E-01  3.0173684257E-01
                       2.4381588200E-01  3.6233766900E-01  9.6035203445E-01
                       7.4371841948E-01  8.7320681478E-01  5.3458507475E-01
                       3.7127649027E-01  6.7188322298E-01  5.1284229330E-01
                       6.3873984379E-01  1.6227446117E-01 -1.9675035366E-02
                       1.3579325255E-01  1.3624187644E-03 -7.5613302044E-02
                       8.4589687093E-01  5.1681013827E-01  5.9617324911E-01
 
nshiftk 1
shiftk 
0.5 0.5 0.5
#chksymbreak 0
kptopt   1
ngkpt    2 2 2

ecut 30
ixc      -116133
nband    104
nstep    150
diemac   4


# Data set 1 - Refinement of already computed GS WFs       
irdwfk1   0
irdden1   0
iscf1     7
tolvrs1   1.0E-20
nstep1    100

# Data Set 2: Response Function calculation : d/dk 
rfelfd2    2 
rfdir2     1    1    1 

nqpt2      1 
qpt2       0.0  0.0  0.0  

getwfk2   -1 
getden2   -1 

kptopt2    2 

iscf2     -3 

tolwfr2    1.0d-22 

# Data set 3 : Response Function calculation - electric field perturbation, phonons, and strain

rfphon3   1            # Will consider phonon-type perturbation 
rfelfd3   3            # Electric Field
rfstrs3   3            # Strains

rfdir3    1   1   1    # Along all reduced coordinate axis 
rfatpol3  1   26        # All the atoms will be displaced 

nqpt3     1            # One wavevector is to be considered 
qpt3      0.0 0.0 0.0  # This wavevector is q=0 (Gamma) 

kptopt3   2            # Automatic generation of k points, taking 
                       # into account the time-reversal symmetry only 

getwfk3   1            # Read the ground-state wavefunctions 
getddk3   2
                                              
tolvrs3   1.0d-20      # SCF stopping criterion 
                       



# Printing flags
prtden    1
prteig    0
prtwf     1
prtposcar 0
prtcif    0

ecutsm  0.5
            ngfft          72      75      75
pawecutdg  30
pawxcdev   0
