#input for non-centrosymmetric orthorhombic HfO2

ndtset    2

autoparal 1

#Crystal Def.
ntypat   3
natom    26
typat    4*1 4*2 18*3
znucl    57 42 8
acell 3*1

rprim
  1.36073364309160E+01 -3.73755728361342E-01 -5.66406037813948E-01
 -3.70423577753333E-01  1.32691097535409E+01 -7.33847380927100E-02
 -5.63675668760149E-01 -5.53132673692971E-02  1.36151380252411E+01

             xred      8.9096547388E-01  8.7675768672E-01  8.4168912894E-01
                       3.1074521684E-01  6.5300738263E-01  1.4648577212E-01
                       1.1801933069E-01  3.6786824715E-01  6.7401706948E-01
                       6.6292459533E-01  1.1893727706E-01  4.1063800298E-01
                       1.9820410924E-01  1.7345548360E-01  2.0674792203E-01
                       6.8996159215E-01  3.4265206305E-01  8.8209294613E-01
                       7.9611750309E-01  6.6872443299E-01  3.0276821507E-01
                       3.0912784308E-01  8.3431364495E-01  6.1767144392E-01
                       4.0322197401E-01  3.1233295194E-01  2.9862513956E-01
                       8.2938404523E-01  1.7791465298E-01  7.0394319638E-01
                       6.0701908572E-01  8.1943005883E-01  2.3027126920E-01
                       2.2911224765E-01  6.8046370814E-01  8.1480329908E-01
                       1.0208917223E+00  1.9248275636E-01  3.5989506102E-01
                       4.8074976617E-01  3.1170186593E-01  7.3763512567E-01
                      -3.0731346447E-02  6.8353039127E-01  1.4323872164E-01
                       5.5105625497E-01  8.6653347275E-01  6.8609180119E-01
                       1.8010262701E-01  9.6609398188E-01  5.8062593655E-02
                       1.6921149602E-01  1.9931773174E-02  6.9741741906E-01
                       8.5536422228E-01  5.2762727099E-01  7.9731467037E-01
                       7.7446786760E-01  4.4915270496E-01  4.1590987162E-01
                       1.4759468028E-01  3.4350385567E-01  1.0238562887E+00
                       8.7859148560E-01  8.2345474005E-01  4.9302999050E-01
                       2.3758041865E-01  6.1887389140E-01  4.6856748488E-01
                       7.3642682577E-01  1.4409980344E-01  3.8238059298E-02
                       6.2295287871E-01  5.0702278257E-01  1.0609950907E+00
                       3.3093808414E-01  9.7013311948E-01  3.8999441676E-01
 
kptopt   1
            ngfft          72      75      75
ngkpt    2 2 2
nshiftk 1
shiftk 
0.5 0.5 0.5
ecut       30
ecutsm  0.5
pawecutdg  30
pawxcdev   0
ixc      -116133
nband    104
diemac   4

# First SCF run       
#irdwfk1   1
nstep1    100
iscf1     7
tolvrs1   1.0E-20

#Refinement using tolwfr
nstep2    250
getwfk2   -1
iscf2     7
tolwfr2   1.0E-20

# Printing flags
prtden    1
prteig    0
prtwf     1
prtposcar 0
prtcif    1
