#input for non-centrosymmetric orthorhombic HfO2

ndtset    1
autoparal 1

#Crystal Def.

nsym      1
ntypat   3
natom    26
typat    4*1 4*2 18*3
znucl    57 42 8

acell 3*1

rprim
  1.36074857163626E+01 -3.74094568009752E-01 -5.67943816737335E-01
 -3.70770445689091E-01  1.32680061461077E+01 -7.31533127165634E-02
 -5.65160444608961E-01 -5.50909341495672E-02  1.36164013163760E+01

xred      
  8.90848028116516E-01  8.76931669600632E-01  8.41788803926777E-01
  3.10788534498697E-01  6.52875355534464E-01  1.46530832380327E-01
  1.18004521367201E-01  3.67894523524808E-01  6.73967056369676E-01
  6.62752630494791E-01  1.18999389511553E-01  4.10659930643946E-01
  1.98142881714378E-01  1.73335576002548E-01  2.06732860600464E-01
  6.89984524708344E-01  3.42718234955685E-01  8.82071904655275E-01
  7.96285516258649E-01  6.68734909610173E-01  3.02963195423258E-01
  3.09060717874408E-01  8.34345523160293E-01  6.17638531302460E-01
  4.03051356301428E-01  3.12520368230829E-01  2.98651343894553E-01
  8.29367684794072E-01  1.77953125788820E-01  7.03835471118545E-01
  6.07076431605584E-01  8.19293089254255E-01  2.30503541481455E-01
  2.29367928899563E-01  6.80410283642245E-01  8.14763608559983E-01
  1.02070269404787E+00  1.92250666879755E-01  3.59670317261659E-01
  4.80751574312251E-01  3.12051623027479E-01  7.37579226153994E-01
 -3.07035641544999E-02  6.83675169647239E-01  1.43359215424745E-01
  5.51055161746423E-01  8.66597696031937E-01  6.85818663793572E-01
  1.80205211582900E-01  9.65994686223273E-01  5.80006027397065E-02
  1.69244101721151E-01  2.00029814358119E-02  6.97427012379176E-01
  8.55478415860023E-01  5.27674137741790E-01  7.97478402969651E-01
  7.74735200112696E-01  4.49079913812659E-01  4.16010529827196E-01
  1.47530810296071E-01  3.43391130571575E-01  1.02380800575133E+00
  8.78707487222998E-01  8.23401121371841E-01  4.93251831603142E-01
  2.37404760138269E-01  6.18942862632590E-01  4.68524770979363E-01
  7.36218433835181E-01  1.43813151977609E-01  3.79199250575933E-02
  6.23063136088127E-01  5.06889350898860E-01  1.06111413129845E+00
  3.30875820570941E-01  9.70223458878187E-01  3.89930284410018E-01



kptopt   1
            ngfft          72      75      75

ngkpt    2 2 2
nshiftk 1
shiftk 
0.5 0.5 0.5

ecut       30
pawecutdg  30
pawxcdev   0
ixc      -116133
nband    104
diemac   4

ecutsm  0.5
nstep    100
iscf     7
tolvrs   1.0E-20
ionmov   2
optcell  2
dilatmx  1.04
tolmxf   1e-8
ntime    150
strtarget 5*0.0 -3.39893e-05 



# Printing flags
prtden    1
prteig    0
prtwf     1
prtposcar 0
prtcif    1
