#input for non-centrosymmetric orthorhombic HfO2

ndtset    1
autoparal 1

#Crystal Def.

nsym      1
ntypat   3
natom    26
typat    4*1 4*2 18*3
znucl    57 42 8

acell 3*1

rprim
  1.34729545726838E+01  6.86643806444247E-01 -2.46508892388131E-03
  6.93247485414582E-01  1.36018810143557E+01  1.48364092698426E-02
 -3.40292192653053E-03  1.40045551137882E-02  1.33349733917681E+01


xred      
  8.69168979646764E-01  8.18937901623090E-01  8.67831745921109E-01
  3.35317473452883E-01  6.05312315304263E-01  1.23829888330192E-01
  1.63873235907037E-01  3.94928599508007E-01  6.23726927114910E-01
  6.27701701203898E-01  1.80001628779918E-01  3.70342619006765E-01
  1.20547528738109E-01  1.89373625333015E-01  1.61062511662626E-01
  7.04963228782791E-01  2.97595699331883E-01  8.31926471621188E-01
  7.94884915795421E-01  7.02273451468684E-01  3.30896795940400E-01
  3.79333675706745E-01  8.10364514670060E-01  6.61294251217897E-01
  3.05873548179226E-01  3.06473967687809E-01  3.19188939451210E-01
  7.87679702072415E-01  1.00075655008634E-01  6.83519959808283E-01
  7.10978260248196E-01  9.00891823133863E-01  1.83857647521230E-01
  1.92853120754777E-01  6.96185987861650E-01  8.18809514734478E-01
  9.62323781953814E-01  2.49846197565864E-01  3.66598871459169E-01
  5.15350475517284E-01  3.65564002717538E-01  6.68250131854572E-01
 -1.63174346936991E-02  6.35613257465185E-01  1.66109018018852E-01
  5.36596393984206E-01  7.49005453105732E-01  8.68321451528020E-01
  2.33975991893201E-01  9.61975357122477E-01  1.64800325326826E-01
  2.69407484360885E-01  3.93242387728352E-02  6.61342977624117E-01
  8.58880975912576E-01  4.73326309204820E-01  8.12357112400272E-01
  6.40910448307491E-01  5.26576906722673E-01  3.12062770543161E-01
  2.00446230309977E-01  3.39190448746476E-01  9.73589269021874E-01
  9.30016391386975E-01  6.96548754736196E-01  5.42378085197868E-01
  3.00362739703913E-01  6.61562192415812E-01  4.73747239238723E-01
  5.71923344951181E-01  3.01477857696834E-01  4.42642289419148E-02
 -8.50072900646374E-02  1.42207502281987E-01  8.65990967984619E-03
  5.87955095968879E-01  8.55366351750699E-01  5.11231336830553E-01




kptopt   1
ngkpt    2 2 2
nshiftk 1
shiftk 
0.5 0.5 0.5

ecut       30
pawecutdg  30
pawxcdev   0
ixc      -116133
nband    104
diemac   4

ecutsm  0.5
nstep    100
iscf     7
tolvrs   1.0E-20
ionmov   2
optcell  2
dilatmx  1.04
tolmxf   1e-8
ntime    150
strtarget 1*-3.39893e-05 2*0.0 3*0.0



# Printing flags
prtden    1
prteig    0
prtwf     1
prtposcar 0
prtcif    1
