#input for non-centrosymmetric orthorhombic HfO2

ndtset    2

autoparal 1

#Crystal Def.
ntypat   3
natom    26
typat    4*1 4*2 18*3
znucl    57 42 8
acell 3*1

rprim
  1.32691295363353E+01  0.00000000000000E+00  0.00000000000000E+00
  0.00000000000000E+00  1.35889427031271E+01  6.90309298567804E-01
  0.00000000000000E+00  7.17245189621476E-01  1.35831401786586E+01

             xred      8.6942844496E-01  8.7171407318E-01  8.1914643263E-01
                       3.6942844496E-01  6.2828592682E-01  1.8085356737E-01
                       1.2425831929E-01  3.3508631774E-01  6.0468559412E-01
                       6.2425831929E-01  1.6491368226E-01  3.9531440588E-01
                       1.6158127373E-01  1.1976389476E-01  1.8927698169E-01
                       6.6158127373E-01  3.8023610524E-01  8.1072301831E-01
                       8.3111100171E-01  7.0512797701E-01  2.9818967486E-01
                       3.3111100171E-01  7.9487202299E-01  7.0181032514E-01
                       3.1950166697E-01  3.0619012440E-01  3.0346406797E-01
                       8.1950166697E-01  1.9380987560E-01  6.9653593203E-01
                       6.8323947104E-01  7.8576043135E-01  9.8767568034E-02
                       1.8323947104E-01  7.1423956865E-01  9.0123243197E-01
                       9.7348706167E-01  1.9998074931E-01  3.3901184990E-01
                       4.7348706167E-01  3.0001925069E-01  6.6098815010E-01
                       4.3482475328E-02  5.7135486829E-01  3.0149864540E-01
                       5.4348247533E-01  9.2864513171E-01  6.9850135460E-01
                       3.6837599376E-01  9.6350955952E-01  2.5061514891E-01
                       1.6698820061E-01 -1.6899990463E-02  6.3370739589E-01
                       8.6837599376E-01  5.3649044048E-01  7.4938485109E-01
                       6.6698820061E-01  5.1689999046E-01  3.6629260411E-01
                       1.6322317993E-01  2.2960222728E-01  9.6028748556E-01
                       8.1155168996E-01  8.5849779593E-01  4.7339658305E-01
                       3.1155168996E-01  6.4150220407E-01  5.2660341695E-01
                       6.6322317993E-01  2.7039777272E-01  3.9712514441E-02
                       8.7712210676E-03 -8.5323856914E-02  1.4451637673E-01
                       5.0877122107E-01  5.8532385691E-01  8.5548362327E-01
 
kptopt   1
            ngfft          72      75      75
ngkpt    2 2 2
nshiftk 1
shiftk 
0.5 0.5 0.5
ecut       30
ecutsm  0.5
pawecutdg  30
pawxcdev   0
ixc      -116133
nband    104
diemac   4

# First SCF run       
#irdwfk1   1
nstep1    100
iscf1     7
tolvrs1   1.0E-20

#Refinement using tolwfr
nstep2    250
getwfk2   -1
iscf2     7
tolwfr2   1.0E-20

# Printing flags
prtden    1
prteig    0
prtwf     1
prtposcar 0
prtcif    1
