#input for non-centrosymmetric orthorhombic HfO2

ndtset    1
autoparal 1

#Crystal Def.

nsym      1
ntypat   3
natom    26
typat    4*1 4*2 18*3
znucl    57 42 8

acell 3*1

rprim
  1.35689984101374E+01 -2.13128772004130E-03  7.03355908914210E-01
 -5.94843839320704E-03  1.33117061590507E+01  7.36673601557711E-02
  6.96327481043490E-01  7.42480049355495E-02  1.35757086830976E+01

             xred     
  8.18366823708510E-01  8.69819069960141E-01  8.70826618042277E-01
  3.95686607987601E-01  6.24148676699953E-01  1.64702358111967E-01
  1.80965644767578E-01  3.69121122949668E-01  6.27310212590995E-01
  6.05412129657350E-01  1.24082043660819E-01  3.34973749440237E-01
  1.89730159390849E-01  1.60878559297070E-01  1.19242926093303E-01
  7.01677365008105E-01  3.31552395613129E-01  7.94489183584384E-01
  8.10860006931147E-01  6.62006113180619E-01  3.80160625491360E-01
  2.97454677457590E-01  8.30601539583541E-01  7.04148211593014E-01
  3.05081831843660E-01  3.19223141658072E-01  3.05425579034337E-01
  9.00594703330931E-01  1.83395803110906E-01  7.13380613559718E-01
  6.96625418563995E-01  8.19287603279277E-01  1.93381914495520E-01
  9.75495777726043E-02  6.84040937578783E-01  7.85628888369952E-01
  9.61334899773373E-01  1.63565434435157E-01  2.31207974836114E-01
  5.26208489664091E-01  3.09717296650495E-01  6.41515578963041E-01
  4.06841772648867E-02  6.63515810697136E-01  2.71602399909543E-01
  4.72314599617471E-01  8.12849445102959E-01  8.58873226650321E-01
  3.40091956983722E-01  9.73909252053817E-01  2.01063297791950E-01
  2.98985021393449E-01  4.35859136512513E-02  5.70710267780628E-01
  6.95484630023642E-01  5.42854698502042E-01  9.27653681150512E-01
  6.62388270177711E-01  4.73717146650297E-01  3.01098040313199E-01
  2.51149933658401E-01  3.68199099993400E-01  9.62217599625613E-01
  7.49166257055869E-01  8.67304052121214E-01  5.35992618477450E-01
  3.67272034746000E-01  6.68011119431324E-01  5.17286192229702E-01
  6.35521626003402E-01  1.66378639113575E-01 -1.59839319129726E-02
  1.43955213052874E-01  9.08058389435953E-03 -8.39509123056020E-02
  8.55437944178163E-01  5.09154501157429E-01  5.87043086084284E-01

kptopt   1
ngkpt    2 2 2
nshiftk 1
shiftk 
0.5 0.5 0.5

ecut       30
pawecutdg  30
pawxcdev   0
ixc      -116133
nband    104
diemac   4

ecutsm  0.5
nstep    100
iscf     7
tolvrs   1.0E-20
ionmov   2
optcell  2
dilatmx  1.04
tolmxf   1e-8
ntime    150
strtarget 3*0.00 1*1.69946e-05  2*0.0



# Printing flags
prtden    1
prteig    0
prtwf     1
prtposcar 0
prtcif    1
