#input for non-centrosymmetric orthorhombic HfO2

ndtset    1
autoparal 1

#Crystal Def.

nsym      1
ntypat   3
natom    26
typat    4*1 4*2 18*3
znucl    57 42 8

acell 3*1

rprim
  1.34026207370506E+01  7.10645204918640E-04 -1.89084138109325E-03
  6.12587354693796E-04  1.35476939082941E+01 -6.82394296555422E-01
 -1.87898756600561E-03 -7.07305170323954E-01  1.35386669122179E+01

xred      
  8.76340733250722E-01  8.35382400252218E-01  8.95165021211265E-01
  3.76087445005777E-01  6.64912967859713E-01  1.05224471253919E-01
  1.29509273609695E-01  3.72673559371408E-01  6.81808904877685E-01
  6.29574690070952E-01  1.28166230911857E-01  3.17857203853395E-01
  1.68399222179377E-01  2.05186192936333E-01  2.02901238443641E-01
  6.68504130253981E-01  2.95474220322663E-01  7.96968018776000E-01
  8.38858962800360E-01  6.19444799633931E-01  3.10702053152152E-01
  3.39261116356093E-01  8.80362169293348E-01  6.89324212685856E-01
  3.15108173610445E-01  2.86665915203436E-01  4.02585179501078E-01
  8.15272390995614E-01  2.14321750925440E-01  5.97421591152498E-01
  6.81320410726278E-01  8.05804492053620E-01  1.95479739547482E-01
  1.81281221265983E-01  6.94405112511502E-01  8.05565295616499E-01
  9.56533661678969E-01  7.30733832728750E-02  1.96978377177406E-01
  4.56675982256623E-01  4.27289924923169E-01  8.01167860948986E-01
  2.52151795758713E-02  7.00315333422888E-01  1.61317433684092E-01
  5.25271058601890E-01  7.99915205894437E-01  8.39549884555581E-01
  3.31438947368156E-01  1.01633494378330E+00  1.35404427126332E-01
  1.34160097498865E-01  3.74264877225585E-02  7.49785673118394E-01
  8.31444019010512E-01  4.83822138994402E-01  8.66043136806919E-01
  6.33981308803501E-01  4.62227943532661E-01  2.49562062020779E-01
  1.89605683740826E-01  3.59581207583524E-01  1.02752645909631E+00
  8.37179209906367E-01  7.29593500594987E-01  5.40503992275785E-01
  3.37056316490633E-01  7.68018047599740E-01  4.60368341971850E-01
  6.88297651466650E-01  1.40289270340125E-01 -2.82050381566714E-02
  9.91742988188198E-01  4.15031270387932E-01  3.56086460258309E-01
  4.91880125243494E-01  1.08428153062480E+00  6.42907999112446E-01

kptopt   1
            ngfft          72      75      75

ngkpt    2 2 2
nshiftk 1
shiftk 
0.5 0.5 0.5

ecut       30
pawecutdg  30
pawxcdev   0
ixc      -116133
nband    104
diemac   4

ecutsm  0.5
nstep    100
iscf     7
tolvrs   1.0E-20
ionmov   2
optcell  2
dilatmx  1.04
tolmxf   1e-8
ntime    150
strtarget 3.39893e-05 5*0.0 



# Printing flags
prtden    1
prteig    0
prtwf     1
prtposcar 0
prtcif    1
