#input for KTaO3

ndtset    3

autoparal 1

#Crystal Def.
ntypat   3
natom    26
typat    4*1 4*2 18*3
znucl    57 42 8
acell 3*1


rprim
  1.31543432189470E+01 -7.69991268248493E-02  1.08359946844835E-01
 -7.92345122294394E-02  1.37381842505749E+01 -2.05095580389937E-01
  1.32214614639427E-01 -2.08182342319780E-01  1.36442796244901E+01

             xred      8.7722158859E-01  8.4771337965E-01  8.6749233408E-01
                       3.4042078588E-01  6.1709237819E-01  1.9618908666E-01
                       1.4063250467E-01  3.5264272965E-01  6.4048871582E-01
                       6.4224751242E-01  1.1527855627E-01  3.1134214800E-01
                       1.3557417281E-01  1.7812627765E-01  1.8630692917E-01
                       6.6259662872E-01  3.2796394791E-01  8.0910905422E-01
                       8.5083776375E-01  6.8041561401E-01  3.2650438980E-01
                       3.6442109163E-01  8.5467874835E-01  7.0596157299E-01
                       2.9684505356E-01  6.4254969998E-01  8.0891639857E-01
                       3.1733080868E-01  3.1464212222E-01  3.3693927013E-01
                       6.6448821926E-01  7.8847910396E-01  1.6130433871E-01
                       8.5426272735E-01  1.7961072166E-01  7.5664683359E-01
                       1.5467209032E-02  6.8871412971E-01  1.1522391067E-01
                       2.8686847368E-01  9.8324680684E-01  1.5598623861E-01
                       8.1062261545E-01  8.6690459654E-01  4.9172866604E-01
                       7.7236744946E-01  5.4357798803E-01  7.6509770732E-01
                       5.5643413104E-01  9.5255170943E-01  8.3011451122E-01
                       9.7323941725E-01  2.1371525328E-01  3.9712666589E-01
                       7.0106097731E-01  4.8724654349E-01  3.6363287544E-01
                       1.6646760290E-01  3.4042026598E-01  1.0056312110E+00
                       4.8046881424E-01  2.7315158742E-01  6.4684011617E-01
                       1.6731653308E-01  4.3863318145E-03  7.2991691155E-01
                       1.0802893837E+00  6.0892702514E-01  4.4592640630E-01
                       5.7627157291E-01  3.2740799331E-01  3.9931191860E-02
                       4.2661478771E-01  8.3463333326E-01  4.6914147206E-01
                      -9.5530210515E-02  7.8783529716E-02  1.0949040037E+00
 
nshiftk 1
shiftk 
0.5 0.5 0.5
#chksymbreak 0
kptopt   1
ngkpt    2 2 2

ecut 30
ixc      -116133
nband    104
nstep    150
diemac   4


# Data set 1 - Refinement of already computed GS WFs       
irdwfk1   0
irdden1   0
iscf1     7
tolvrs1   1.0E-20
nstep1    100

# Data Set 2: Response Function calculation : d/dk 
rfelfd2    2 
rfdir2     1    1    1 

nqpt2      1 
qpt2       0.0  0.0  0.0  

getwfk2   -1 
getden2   -1 

kptopt2    2 

iscf2     -3 

tolwfr2    1.0d-22 

# Data set 3 : Response Function calculation - electric field perturbation, phonons, and strain

rfphon3   1            # Will consider phonon-type perturbation 
rfelfd3   3            # Electric Field
rfstrs3   3            # Strains

rfdir3    1   1   1    # Along all reduced coordinate axis 
rfatpol3  1   26        # All the atoms will be displaced 

nqpt3     1            # One wavevector is to be considered 
qpt3      0.0 0.0 0.0  # This wavevector is q=0 (Gamma) 

kptopt3   2            # Automatic generation of k points, taking 
                       # into account the time-reversal symmetry only 

getwfk3   1            # Read the ground-state wavefunctions 
getddk3   2
                                              
tolvrs3   1.0d-20      # SCF stopping criterion 
                       



# Printing flags
prtden    1
prteig    0
prtwf     1
prtposcar 0
prtcif    0

ecutsm  0.5
            ngfft          72      75      75
pawecutdg  30
pawxcdev   0
