#input for KTaO3

ndtset 2

autoparal 1

#Crystal Def.
ntypat   3
natom    104
typat    16*1 16*2 72*3
znucl    57 42 8
acell 3*1


rprim
  2.68499797113449E+01 -5.39200291816036E-01 -1.01822228695307E-01
 -5.39559335624791E-01  2.70688474964419E+01  8.59452693536740E-02
 -5.62248579403971E-02  4.15517414387153E-02  1.35561554120827E+01

             xred      4.2960158919E-01  4.4189350642E-01  8.3055472207E-01
                       1.4933917053E-01  3.0276323634E-01  1.1269355999E-01
                       1.0196917991E-01  1.6707110942E-01  5.9399472444E-01
                       3.2265773851E-01  6.2604102800E-02  3.3858862633E-01
                       9.1091775699E-01  4.4118740602E-01  8.7501172152E-01
                       6.7641235947E-01  3.3960735835E-01  1.7021725585E-01
                       5.6784438678E-01  2.0217046093E-01  6.9577417363E-01
                       8.2550712117E-01  7.4770641473E-02  3.7579443853E-01
                       4.3035935162E-01  9.3575916359E-01  8.2942893159E-01
                       1.8091197573E-01  8.3025006276E-01  1.4125134154E-01
                       8.6215672293E-02  6.7008156731E-01  5.6856589351E-01
                       3.1868815516E-01  5.7358874407E-01  3.4637358096E-01
                       9.0618954072E-01  9.4232468502E-01  8.6211342369E-01
                       6.5317806605E-01  8.1650312873E-01  1.8856995676E-01
                       5.5332558256E-01  6.8326678560E-01  6.4542500119E-01
                       8.1235019994E-01  5.7429269709E-01  3.5031177850E-01
                       9.0046452554E-02  6.2403762183E-02  1.5676285906E-01
                       3.2645558161E-01  1.7356697383E-01  7.8147085769E-01
                       4.0104336000E-01  3.2589960299E-01  3.1454189211E-01
                       1.5715983833E-01  4.0158355180E-01  6.5064950239E-01
                       6.0178665894E-01  9.6265167113E-02  1.9513087733E-01
                       8.5273365488E-01  1.7435541078E-01  8.3440152146E-01
                       9.1677814404E-01  3.3214345538E-01  3.2322531178E-01
                       6.7175311766E-01  4.2579828787E-01  7.0653774556E-01
                       8.2526555788E-02  5.4067566533E-01  1.7383947562E-01
                       3.2207217197E-01  6.6350068762E-01  8.1820136541E-01
                       4.1935659084E-01  8.4631843251E-01  2.9262983950E-01
                       1.3797631172E-01  8.9542904514E-01  6.8925548442E-01
                       5.7433246005E-01  5.8244091690E-01  1.9659867855E-01
                       8.4105699530E-01  6.7951809375E-01  8.2947722336E-01
                       9.0621757885E-01  8.2752288303E-01  3.3327567891E-01
                       6.7402775532E-01  9.3628605270E-01  7.0894693984E-01
                       7.0811903340E-02  3.5279500043E-01  8.0933518529E-01
                       1.7295293431E-01  1.5495207209E-01  2.7464041056E-01
                       3.3692876421E-01  3.4971191564E-01  1.0726264630E-01
                       4.2480157420E-01  9.7972984113E-02  6.8010322916E-01
                       5.8352300141E-01  3.5284962418E-01  8.5786040618E-01
                       6.4785365432E-01  1.4488231199E-01  4.0631839969E-01
                       8.4263271266E-01  4.2155764837E-01  2.0813389972E-01
                       9.3052522649E-01  1.4849929811E-01  6.4545922947E-01
                       6.6798634598E-02  8.0734560836E-01  7.9838217219E-01
                       1.5586852332E-01  6.4285002833E-01  2.6012107061E-01
                       3.4195974313E-01  9.1834114482E-01  1.3301765816E-01
                       4.0785198849E-01  5.8832388718E-01  6.7400997601E-01
                       5.7579661960E-01  8.5142865739E-01  7.4370233458E-01
                       6.5556586406E-01  6.5906278734E-01  3.5972730167E-01
                       8.7404082857E-01  9.2947179696E-01  2.0878776113E-01
                       9.1586091214E-01  6.4706067879E-01  6.4172051847E-01
                       7.7508870455E-02  1.4115098201E-01  9.6045647880E-01
                       9.9652764207E-01  7.0334044746E-02  3.1644592972E-01
                       1.8096987867E-01  9.8383354866E-01  2.6381093636E-01
                       3.9535388927E-01  4.2288963746E-01  4.6719902208E-01
                       3.4524754735E-01  2.2841417924E-01  4.2201598694E-01
                       5.1716168394E-01  2.8888055302E-01  2.8085193755E-01
                       3.2590647970E-01  1.2658333199E-01  7.0000489464E-03
                       4.1613754816E-01  2.7067874005E-01  7.6983986908E-01
                       2.4607569422E-01  9.4759997691E-02  6.3197613272E-01
                       2.6025312649E-01  4.4332551250E-01  7.6217270563E-01
                       1.7557742816E-01  3.2548629459E-01  4.6163787927E-01
                       1.0779032772E-01  5.0126639051E-01  5.4967082375E-01
                       1.4084731696E-02  4.1304459868E-01  1.5971944749E-01
                       9.2076089054E-01  3.7365744724E-01  5.5102500027E-01
                       8.2068727553E-01  2.4386796574E-01  3.0923707344E-01
                       4.8313628633E-01  5.8805800691E-02  2.0425822647E-01
                       6.2083825846E-01  1.8417075511E-01  1.0216227830E+00
                       6.7661271880E-01  1.0037776620E+00  1.6130703223E-01
                       7.5332192094E-01  3.9022627275E-01  8.9706271435E-01
                       6.5830585873E-01  3.4590269617E-01  5.1842550536E-01
                       5.8683175750E-01  5.1634131608E-01  7.0002778863E-01
                       8.5191599897E-01  8.9647437026E-02  1.9254878878E-02
                       9.0003022731E-01  2.7543087594E-01  9.4658752770E-01
                       7.4370056892E-01  2.0406742718E-01  7.4444623554E-01
                       3.4554701797E-01  5.8556256816E-01  1.0670532432E-02
                       4.0339409527E-01  7.6204296156E-01  7.9800344846E-01
                       2.4455971904E-01  6.3896271651E-01  6.0737140555E-01
                       1.8773802275E-01  4.6990637320E-01  1.8983678605E-01
                       5.2571190810E-02  5.6501545491E-01  9.3902217152E-01
                       9.8541640919E-01  5.7717168575E-01  3.2029596305E-01
                       3.9391365689E-01  9.2190000291E-01  4.8786239830E-01
                       3.3833186460E-01  7.4847126194E-01  2.8482788005E-01
                       5.0696330432E-01  8.7071958687E-01  9.5887247997E-02
                       6.6062962399E-02 -7.7289825845E-03  6.4388475199E-01
                       2.3934416222E-01  9.1779454521E-01  8.2871896562E-01
                       1.7157881604E-01  8.2972810177E-01  4.9151816398E-01
                       6.7410414825E-01  5.0055028646E-01  2.2336789118E-01
                       4.8236526861E-01  6.1364983128E-01  3.5357584406E-01
                       5.8161109992E-01  6.6570004228E-01  1.0099880952E+00
                       8.3682278513E-01  5.8744923436E-01 -2.7841098462E-03
                       8.8961228835E-01  7.7774930239E-01  9.4665224790E-01
                       7.2915143970E-01  7.0166985294E-01  7.4209389539E-01
                       5.9953219351E-01  3.2333214596E-02  7.5845835192E-01
                       7.4101797550E-01  8.8684208092E-01  9.0057056040E-01
                       6.9646368927E-01  9.0471340046E-01  4.7027144301E-01
                       1.8660460637E-02  7.8407286605E-01  2.8992478178E-01
                       9.0450786146E-01  8.5605966819E-01  5.6956969583E-01
                       8.1499245372E-01  7.4244099774E-01  2.9182383464E-01
                       5.8803789337E-02 -4.5625170781E-02  2.3795727875E-02
                       2.2413617964E-01  2.5160254891E-01  7.9426884832E-01
                       1.0154292182E+00  2.5677241116E-01  3.1582791081E-01
                       7.7532769780E-01  5.0099328390E-01  6.3655557759E-01
                       2.2247052896E-01  7.1875839582E-01  9.1762252675E-01
                       5.2383917340E-01  7.9650927214E-01  4.0260182694E-01
                       5.0388974266E-01  4.8056603557E-01  1.1647845800E-01
                       7.9254021532E-01  1.0221546133E+00  6.7718833082E-01
 
nshiftk 1
shiftk 
0.5 0.5 0.5
#chksymbreak 0
kptopt   1
ngkpt    1 1 1

ecut 30
ixc      -116133
nband    420
nstep    150
diemac   4


# Data set 1 - Refinement of already computed GS WFs       
irdwfk1 1
irdden1 1
iscf1     7
tolvrs1   1.0E-20
nstep1    100


rfphon2   1            # Will consider phonon-type perturbation 

rfdir2    1   1   1    # Along all reduced coordinate axis 
rfatpol2 49 56

nqpt2     1            # One wavevector is to be considered 
qpt2      0.0 0.0 0.0  # This wavevector is q=0 (Gamma) 

kptopt2   2            # Automatic generation of k points, taking 
                       # into account the time-reversal symmetry only 

getwfk2   1            # Read the ground-state wavefunctions 
getddk2   2
                                              
tolvrs2   1.0d-20      # SCF stopping criterion 
                       



# Printing flags
prtden    1
prteig    0
prtwf     1
prtposcar 0
prtcif    0

ecutsm   0.5
            ngfft         144     144      72
pawecutdg  30
pawxcdev   0
