#input for non-centrosymmetric orthorhombic HfO2

ndtset    2

autoparal 1

#Crystal Def.
ntypat   3
natom    26
typat    4*1 4*2 18*3
znucl    57 42 8
acell 3*1

rprim
  1.35802730575741E+01 -1.57347471665473E-01  6.87371021927362E-01
 -1.55667783219770E-01  1.33046454927191E+01  2.47868815821274E-02
  6.81221556471784E-01  1.65764721271596E-02  1.35712007088997E+01

             xred      8.2338353643E-01  8.7561557538E-01  8.8186967858E-01
                       3.9318708376E-01  6.2558788838E-01  1.6766926319E-01
                       1.8475197279E-01  3.6081893807E-01  6.3738544142E-01
                       6.0474036498E-01  1.2340706169E-01  3.3712125693E-01
                       1.9044172188E-01  1.6299934508E-01  1.1919615272E-01
                       7.0238144929E-01  3.3278208535E-01  7.9649457393E-01
                       8.1097285499E-01  6.6044813895E-01  3.8137679953E-01
                       2.9862570880E-01  8.2903371831E-01  7.0560664118E-01
                       2.9514440847E-01  3.1801130824E-01  3.0977963739E-01
                       8.9756328238E-01  1.8312780931E-01  7.1724553502E-01
                       6.8776238561E-01  8.2016086960E-01  1.9787416580E-01
                       9.6463953011E-02  6.8464177024E-01  7.9190054728E-01
                       9.5640477840E-01  1.5358823530E-01  2.1653011058E-01
                       5.2723992965E-01  3.1193924500E-01  6.4225700865E-01
                       3.4647590234E-02  6.7213189913E-01  2.5996998230E-01
                       4.7414256244E-01  8.1100171194E-01  8.5926544109E-01
                       3.3567832275E-01  9.7513172533E-01  1.9671615127E-01
                       3.0812906734E-01  3.8206401805E-02  5.6493700395E-01
                       7.0405621557E-01  5.4707852819E-01  9.2436012628E-01
                       6.5692598696E-01  4.7275096431E-01  2.9921198026E-01
                       2.5615644024E-01  3.7391423074E-01  9.6576270859E-01
                       7.5394710120E-01  8.6313067427E-01  5.3921463616E-01
                       3.6121776210E-01  6.6192168277E-01  5.1982696681E-01
                       6.3100653156E-01  1.7068999964E-01 -1.3800454235E-02
                       1.5257297414E-01  1.8328339748E-02 -9.6281487177E-02
                       8.6245601506E-01  5.0355185326E-01  5.7851013250E-01
 
kptopt   1
            ngfft          72      75      75
ngkpt    2 2 2
nshiftk 1
shiftk 
0.5 0.5 0.5
ecut       30
ecutsm  0.5
pawecutdg  30
pawxcdev   0
ixc      -116133
nband    104
diemac   4

# First SCF run       
#irdwfk1   1
nstep1    100
iscf1     7
tolvrs1   1.0E-20

#Refinement using tolwfr
nstep2    250
getwfk2   -1
iscf2     7
tolwfr2   1.0E-20

# Printing flags
prtden    1
prteig    0
prtwf     1
prtposcar 0
prtcif    1
