#input for non-centrosymmetric orthorhombic HfO2

ndtset    2

autoparal 1

#Crystal Def.
ntypat   3
natom    26
typat    4*1 4*2 18*3
znucl    57 42 8
acell 3*1

rprim
  1.36010052089181E+01 -9.58311949308465E-01  1.76752866447943E-03
 -9.81416689211124E-01  1.36282447070173E+01 -5.74364565977839E-04
  4.48470164796958E-04 -3.43997959409761E-04  1.32782147096658E+01

             xred      8.3108578078E-01  8.9664022377E-01  8.7743150424E-01
                       3.6278384521E-01  6.8611994479E-01  1.3271767634E-01
                       1.3787725212E-01  3.1383593533E-01  6.3312900940E-01
                       6.6913330982E-01  1.0346505543E-01  3.7734845265E-01
                       2.0951524056E-01  2.0208282011E-01  1.6910612004E-01
                       6.2282382503E-01  3.1050130694E-01  8.3760138589E-01
                       8.7716541242E-01  6.8939024267E-01  3.3802503926E-01
                       2.9063612832E-01  7.9788475929E-01  6.6901107117E-01
                       2.9200416109E-01  4.0448256362E-01  3.1551625859E-01
                       8.1015717901E-01  1.9845054018E-01  6.8114907046E-01
                       6.8995509308E-01  8.0185274763E-01  1.8096584933E-01
                       2.0825969375E-01  5.9579225972E-01  8.1590979438E-01
                       1.0203522244E+00  1.3367334186E-01  3.3564087132E-01
                       4.6791451663E-01  2.4388130699E-01  6.2904807442E-01
                       3.2200758576E-02  7.5599561849E-01  1.2960554859E-01
                       4.7987294639E-01  8.6706883420E-01  8.3508028132E-01
                       3.5971883417E-01  1.0307066296E+00  1.9201439765E-01
                       1.4035118605E-01 -3.0742684393E-02  6.9117013908E-01
                       7.3653209325E-01  5.4069326092E-01  8.3322114171E-01
                       7.6266423557E-01  4.5953537654E-01  3.3320404672E-01
                       7.1121823362E-02  1.9219452830E-01  9.5916809340E-01
                       8.0104232207E-01  8.3562860032E-01  5.2683160450E-01
                       4.2872262006E-01  8.0672992276E-01  4.5897819266E-01
                       6.9890749464E-01  1.6491211416E-01  2.6857495842E-02
                       4.1524544622E-01  3.5571755645E-01  9.8525572955E-01
                       1.0839565773E+00  6.4350719431E-01  4.8601315148E-01
 
kptopt   1
            ngfft          72      75      75
ngkpt    2 2 2
nshiftk 1
shiftk 
0.5 0.5 0.5
ecut       30
ecutsm  0.5
pawecutdg  30
pawxcdev   0
ixc      -116133
nband    104
diemac   4

# First SCF run       
#irdwfk1   1
nstep1    100
iscf1     7
tolvrs1   1.0E-20

#Refinement using tolwfr
nstep2    250
getwfk2   -1
iscf2     7
tolwfr2   1.0E-20

# Printing flags
prtden    1
prteig    0
prtwf     1
prtposcar 0
prtcif    1
