#input for KTaO3

ndtset    3

autoparal 1

#Crystal Def.
ntypat   3
natom    26
typat    4*1 4*2 18*3
znucl    57 42 8
acell 3*1


rprim
  1.35703421599635E+01 -1.73245508507818E-02 -7.02495770926981E-01
 -2.09344377191375E-02  1.33104200615479E+01 -7.59719836297703E-02
 -6.99844337863866E-01 -7.63827491271590E-02  1.35777760581911E+01

             xred      8.9496659399E-01  8.7613637939E-01  8.3531737781E-01
                       3.1823233089E-01  6.3154592861E-01  1.2906491798E-01
                       1.0467954809E-01  3.7548786548E-01  6.6524470743E-01
                       6.8083615734E-01  1.2932947940E-01  3.7271009723E-01
                       2.0272514345E-01  1.6940598601E-01  2.0526621570E-01
                       6.8908197474E-01  3.3833008879E-01  8.7990048691E-01
                       7.9809808304E-01  6.6824336539E-01  2.9480106802E-01
                       3.1014204428E-01  8.3865267724E-01  6.1929291213E-01
                       4.0286038546E-01  3.1618272636E-01  2.8714345588E-01
                       8.0523194580E-01  1.8049359229E-01  6.9387178184E-01
                       5.9938415592E-01  8.1670225601E-01  2.1506251125E-01
                       1.9687212639E-01  6.8094902793E-01  8.0600608059E-01
                       1.0269539864E+00  1.8790188391E-01  3.5875104757E-01
                       4.6064492656E-01  3.3555789711E-01  7.6798526436E-01
                      -2.7045167077E-02  6.8972284276E-01  1.4102459343E-01
                       5.3986249200E-01  8.3726896566E-01  7.2802560355E-01
                       1.9959313100E-01  9.5675065862E-01  7.0802973511E-02
                       1.6085401537E-01  2.6035335652E-02  7.0115238621E-01
                       8.3907492069E-01  5.2617462811E-01  8.0113843146E-01
                       8.0261785545E-01  4.5666510054E-01  4.2698823518E-01
                       1.3426825871E-01  3.3229628914E-01  1.0181705848E+00
                       8.6587328782E-01  8.3285152756E-01  4.8439460223E-01
                       2.4753664117E-01  6.3143131061E-01  4.6206879639E-01
                       7.4913491083E-01  1.3322919100E-01  3.5679824847E-02
                       6.4295227864E-01  4.9213137527E-01  1.0851035977E+00
                       3.5456797309E-01  9.9052362109E-01  4.1503244605E-01
 
nshiftk 1
shiftk 
0.5 0.5 0.5
#chksymbreak 0
kptopt   1
ngkpt    2 2 2

ecut 30
ixc      -116133
nband    104
nstep    150
diemac   4


# Data set 1 - Refinement of already computed GS WFs       
irdwfk1   0
irdden1   0
iscf1     7
tolvrs1   1.0E-20
nstep1    100

# Data Set 2: Response Function calculation : d/dk 
rfelfd2    2 
rfdir2     1    1    1 

nqpt2      1 
qpt2       0.0  0.0  0.0  

getwfk2   -1 
getden2   -1 

kptopt2    2 

iscf2     -3 

tolwfr2    1.0d-22 

# Data set 3 : Response Function calculation - electric field perturbation, phonons, and strain

rfphon3   1            # Will consider phonon-type perturbation 
rfelfd3   3            # Electric Field
rfstrs3   3            # Strains

rfdir3    1   1   1    # Along all reduced coordinate axis 
rfatpol3  1   26        # All the atoms will be displaced 

nqpt3     1            # One wavevector is to be considered 
qpt3      0.0 0.0 0.0  # This wavevector is q=0 (Gamma) 

kptopt3   2            # Automatic generation of k points, taking 
                       # into account the time-reversal symmetry only 

getwfk3   1            # Read the ground-state wavefunctions 
getddk3   2
                                              
tolvrs3   1.0d-20      # SCF stopping criterion 
                       



# Printing flags
prtden    1
prteig    0
prtwf     1
prtposcar 0
prtcif    0

ecutsm  0.5
            ngfft          72      75      75
pawecutdg  30
pawxcdev   0
