#input for non-centrosymmetric orthorhombic HfO2

ndtset    2

autoparal 1

#Crystal Def.
ntypat   3
natom    104
typat    16*1 16*2 72*3
znucl    57 42 8
acell 3*1

rprim
  2.67823754815637E+01 -6.68999295308617E-01  6.18045880527757E-02
 -6.61288241805178E-01  2.74081530492028E+01 -7.78545012292112E-02
  2.49492593069370E-02 -3.90499706350761E-02  1.35518337881271E+01

             xred      4.2959310259E-01  4.3637161470E-01  8.2933235253E-01
                       1.4629136010E-01  3.0194318301E-01  1.1360675391E-01
                       1.0498629884E-01  1.6923958894E-01  5.9462331133E-01
                       3.2504525922E-01  6.0130048453E-02  3.3069998968E-01
                       9.1240195994E-01  4.3748319454E-01  8.7863679127E-01
                       6.8375758105E-01  3.3766079056E-01  1.6961974937E-01
                       5.6699947464E-01  2.0025802547E-01  7.1196973536E-01
                       8.3218719139E-01  7.7070480268E-02  3.7108611651E-01
                       4.3370484598E-01  9.3928804248E-01  8.4265596058E-01
                       1.8749664438E-01  8.2808943789E-01  1.4209661853E-01
                       9.7484492948E-02  6.7072632397E-01  6.2040927586E-01
                       3.2549293856E-01  5.6900248931E-01  3.3938780383E-01
                       9.0676805366E-01  9.3920270283E-01  8.6078506093E-01
                       6.5726729745E-01  8.1498966432E-01  1.9934315473E-01
                       5.5624370872E-01  6.8324607066E-01  6.5507342248E-01
                       8.0919962303E-01  5.7310688418E-01  3.4598566196E-01
                       9.3206004226E-02  6.4466856636E-02  1.5382469975E-01
                       3.2591295364E-01  1.7130217230E-01  7.8589140124E-01
                       4.0014167449E-01  3.2740248687E-01  3.0838267442E-01
                       1.5841288530E-01  4.0220735400E-01  6.5235286221E-01
                       5.9972389023E-01  9.6505965702E-02  1.8172262365E-01
                       8.4880922499E-01  1.6814202803E-01  8.2433125464E-01
                       9.1955589809E-01  3.3384781185E-01  3.2337556221E-01
                       6.6958037087E-01  4.2530765440E-01  7.0532515932E-01
                       8.3970410752E-02  5.4804461470E-01  1.7939269010E-01
                       3.2056632711E-01  6.6500669987E-01  8.1402146995E-01
                       4.2300875981E-01  8.4536778596E-01  3.0054734512E-01
                       1.3745660907E-01  8.9862272713E-01  6.9498502291E-01
                       5.7211441657E-01  5.8574189980E-01  1.9782138637E-01
                       8.4096448103E-01  6.7498307448E-01  8.2658151787E-01
                       9.1010982470E-01  8.2784110691E-01  3.2781070430E-01
                       6.7486208096E-01  9.3333105146E-01  7.1582502927E-01
                       7.0560790512E-02  3.4752062774E-01  8.0208784166E-01
                       1.7584613866E-01  1.5487678498E-01  2.7910502586E-01
                       3.2626469544E-01  3.5011780627E-01  1.1598306780E-01
                       4.2763499616E-01  9.6602382962E-02  6.9912748943E-01
                       5.8260727642E-01  3.5395019199E-01  8.6334280943E-01
                       6.1172681183E-01  1.5147407191E-01  4.0012359919E-01
                       8.3815275417E-01  4.1966962685E-01  2.1212987502E-01
                       9.3380475317E-01  1.4338144261E-01  6.4646753695E-01
                       6.1442990153E-02  8.1469907920E-01  8.0590559731E-01
                       1.5326043949E-01  6.4827394485E-01  2.6044249433E-01
                       3.4379922443E-01  9.1523313089E-01  1.3859318473E-01
                       4.1010721161E-01  5.8884725178E-01  6.9652082240E-01
                       5.7367119467E-01  8.5146993896E-01  7.5131463006E-01
                       6.5663814884E-01  6.5922672295E-01  3.6074122633E-01
                       8.7247603419E-01  9.2785448066E-01  2.0943204119E-01
                       9.1990516241E-01  6.4587096045E-01  6.4188194409E-01
                       8.0906776818E-02  1.4623847836E-01  9.6596359350E-01
                       9.9819967040E-01  7.0057112479E-02  3.1424304534E-01
                       1.8242348759E-01  9.8380459200E-01  2.5361966981E-01
                       3.9584855063E-01  4.2052348981E-01  4.7243501634E-01
                       3.6495717317E-01  2.2219954770E-01  4.1527883605E-01
                       5.1508594861E-01  3.1107936833E-01  2.2994772176E-01
                       3.1637470692E-01  1.2482803743E-01  9.7131000530E-03
                       4.1636894609E-01  2.6824671885E-01  7.8083158304E-01
                       2.4991024454E-01  9.6364785166E-02  6.2533210663E-01
                       2.5939284140E-01  4.4307316180E-01  7.7332883630E-01
                       1.8312466112E-01  3.2919786969E-01  4.6047883460E-01
                       1.0803104727E-01  5.0174051225E-01  5.6397451928E-01
                       9.6609119954E-03  4.0377002860E-01  1.5045466123E-01
                       9.2101565668E-01  3.7838399532E-01  5.4916138175E-01
                       8.2289790178E-01  2.4422961269E-01  3.0874160052E-01
                       4.8191433470E-01  5.9287789063E-02  1.3544987837E-01
                       6.4062698995E-01  1.8417680919E-01  1.0224235476E+00
                       6.7968041198E-01  1.0078347192E+00  1.9167857662E-01
                       7.5361742481E-01  3.8825235652E-01  8.8728892817E-01
                       6.5203328414E-01  3.4609617729E-01  5.1650536582E-01
                       5.8435706701E-01  5.1439240082E-01  7.0639239301E-01
                       8.4866534161E-01  8.7128073836E-02  1.3625818000E-02
                       8.9119198981E-01  2.7095683864E-01  9.3313979687E-01
                       7.4414917698E-01  1.9321313410E-01  7.0943695340E-01
                       3.2863701499E-01  5.9790209943E-01  1.9657609508E-02
                       3.9769478591E-01  7.6545944345E-01  8.0796829239E-01
                       2.5201365978E-01  6.3513878451E-01  5.9252582526E-01
                       1.8087517504E-01  4.7091137751E-01  1.9854840496E-01
                       5.3014685685E-02  5.6490366186E-01  9.4146655987E-01
                       9.8124540010E-01  5.6673473914E-01  3.1861282271E-01
                       4.0070107461E-01  9.2649453459E-01  4.8837897228E-01
                       3.3837883460E-01  7.5009690864E-01  2.8874025446E-01
                       5.1151746737E-01  8.7118246399E-01  1.0803485078E-01
                       7.1942545519E-02 -4.0461370119E-03  6.3941173639E-01
                       2.4038800401E-01  9.1855230647E-01  8.3183514921E-01
                       1.6970577867E-01  8.3058208960E-01  4.9800337470E-01
                       6.6458668685E-01  5.0034858379E-01  2.0830648158E-01
                       4.8449437150E-01  6.1540705294E-01  3.7324633345E-01
                       5.8256587156E-01  6.7096249007E-01  1.0178874903E+00
                       8.3696435582E-01  5.8471018184E-01 -4.9844277701E-03
                       8.8490962255E-01  7.7501676777E-01  9.4155936168E-01
                       7.2946695409E-01  6.9546394496E-01  7.3666297337E-01
                       6.0357955505E-01  3.0412315237E-02  7.7052278380E-01
                       7.3987862265E-01  8.8728175323E-01  9.0893188742E-01
                       6.9701304709E-01  8.9383166150E-01  4.8131882910E-01
                       2.1943353190E-02  7.9180501598E-01  2.6235826180E-01
                       9.1450456818E-01  8.5580655725E-01  5.6504606717E-01
                       8.2032591957E-01  7.3980837087E-01  2.9512122510E-01
                       5.9992164293E-02 -3.7588837922E-02  1.0244433527E-02
                       2.2596081560E-01  2.5069289676E-01  7.9236325103E-01
                       1.0164447735E+00  2.5642817786E-01  3.3094261257E-01
                       7.7128466906E-01  5.0144247697E-01  6.3067656410E-01
                       2.0660697103E-01  7.1560628903E-01  8.8178176454E-01
                       5.2337648073E-01  7.9302870170E-01  4.1136940806E-01
                       4.8339547580E-01  4.9976692936E-01  1.1284001847E-01
                       7.9494248312E-01  1.0157825128E+00  6.7047271627E-01
 
kptopt   1
            ngfft         144     144      72
ngkpt    1 1 2
nshiftk 1
shiftk 
0.5 0.5 0.5
ecut       30
ecutsm   0.5
pawecutdg  30
pawxcdev   0
ixc      -116133
nband    420
diemac   4

# First SCF run       
#irdwfk1   1
nstep1    100
iscf1     7
tolvrs1   1.0E-20

#Refinement using tolwfr
nstep2    250
getwfk2   -1
iscf2     7
tolwfr2   1.0E-20

# Printing flags
prtden    1
prteig    0
prtwf     1
prtposcar 0
prtcif    1
