#input for KTaO3

ndtset    3

autoparal 1

#Crystal Def.
ntypat   3
natom    26
typat    4*1 4*2 18*3
znucl    57 42 8
acell 3*1


rprim
  1.35390108905024E+01  7.14200810246874E-01 -4.34417712766774E-03
  7.19383511602838E-01  1.36966866232905E+01  1.84833487663258E-02
 -5.44358602532547E-03  1.77945451332861E-02  1.32776976338317E+01

             xred      8.6723281661E-01  8.1787967620E-01  8.6633538484E-01
                       3.3362947576E-01  6.0456332006E-01  1.2399129946E-01
                       1.6526240196E-01  3.9596119533E-01  6.2364795131E-01
                       6.2856313922E-01  1.8066771506E-01  3.6932641609E-01
                       1.2075767942E-01  1.8949718931E-01  1.6130859816E-01
                       7.0605313524E-01  2.9714175582E-01  8.3140005153E-01
                       7.9362339209E-01  7.0248966072E-01  3.3054544233E-01
                       3.7908206892E-01  8.1038676515E-01  6.6197895473E-01
                       3.0674229654E-01  3.0599583339E-01  3.1975394837E-01
                       7.8707557011E-01  9.9507202865E-02  6.8338348166E-01
                       7.1134331447E-01  9.0159481751E-01  1.8421926702E-01
                       1.9180030683E-01  6.9764008937E-01  8.1928599866E-01
                       9.6376509238E-01  2.5119438512E-01  3.6758541732E-01
                       5.1685875437E-01  3.6486785006E-01  6.6714389372E-01
                      -1.8101984483E-02  6.3685837209E-01  1.6491905038E-01
                       5.3501782110E-01  7.4743180741E-01  8.7010692950E-01
                       2.3432262727E-01  9.6379135929E-01  1.6595880347E-01
                       2.7033289558E-01  3.8190207690E-02  6.6212226375E-01
                       8.5838637798E-01  4.7201528116E-01  8.1153817382E-01
                       6.4120034572E-01  5.2776068796E-01  3.1057014431E-01
                       1.9991076646E-01  3.3951525363E-01  9.7343432183E-01
                       9.2983583917E-01  6.9499462634E-01  5.4212887062E-01
                       3.0087897254E-01  6.6198850481E-01  4.7371806690E-01
                       5.7246448458E-01  3.0147508349E-01  4.3930213590E-02
                      -8.4019496111E-02  1.4232883202E-01  9.0518724996E-03
                       5.8798190624E-01  8.5426252817E-01  5.1261518414E-01
 
nshiftk 1
shiftk 
0.5 0.5 0.5
#chksymbreak 0
kptopt   1
ngkpt    2 2 2

ecut 30
ixc      -116133
nband    104
nstep    150
diemac   4


# Data set 1 - Refinement of already computed GS WFs       
irdwfk1   0
irdden1   0
iscf1     7
tolvrs1   1.0E-20
nstep1    100

# Data Set 2: Response Function calculation : d/dk 
rfelfd2    2 
rfdir2     1    1    1 

nqpt2      1 
qpt2       0.0  0.0  0.0  

getwfk2   -1 
getden2   -1 

kptopt2    2 

iscf2     -3 

tolwfr2    1.0d-22 

# Data set 3 : Response Function calculation - electric field perturbation, phonons, and strain

rfphon3   1            # Will consider phonon-type perturbation 
rfelfd3   3            # Electric Field
rfstrs3   3            # Strains

rfdir3    1   1   1    # Along all reduced coordinate axis 
rfatpol3  1   26        # All the atoms will be displaced 

nqpt3     1            # One wavevector is to be considered 
qpt3      0.0 0.0 0.0  # This wavevector is q=0 (Gamma) 

kptopt3   2            # Automatic generation of k points, taking 
                       # into account the time-reversal symmetry only 

getwfk3   1            # Read the ground-state wavefunctions 
getddk3   2
                                              
tolvrs3   1.0d-20      # SCF stopping criterion 
                       



# Printing flags
prtden    1
prteig    0
prtwf     1
prtposcar 0
prtcif    0

ecutsm  0.5
            ngfft          72      75      75
pawecutdg  30
pawxcdev   0
