#input for non-centrosymmetric orthorhombic HfO2

ndtset    1
autoparal 1

#Crystal Def.

nsym      1
ntypat   3
natom    26
typat    4*1 4*2 18*3
znucl    57 42 8

acell 3*1

rprim
  1.32967474063843E+01 -1.18846942318158E-03 -3.24814559163317E-03
 -1.25446586804221E-03  1.35568504131922E+01 -7.00405999330109E-01
 -3.13493046423291E-03 -7.20850406881579E-01  1.36358234188201E+01

xred      
  8.76140971537737E-01  8.34706927447247E-01  8.95608706697255E-01
  3.76042167636177E-01  6.65620845531970E-01  1.04649108972443E-01
  1.30905968793344E-01  3.71128511790039E-01  6.81614283375697E-01
  6.31300150432458E-01  1.29796054215118E-01  3.18084786428808E-01
  1.68857439153211E-01  2.05955033294654E-01  2.03049602869200E-01
  6.68691702981725E-01  2.94485096684149E-01  7.96885385477460E-01
  8.38419885103501E-01  6.20104590598445E-01  3.10747397112459E-01
  3.38538420064103E-01  8.79673445120563E-01  6.89200765827463E-01
  3.16003141354043E-01  2.87152155863677E-01  4.02261957767575E-01
  8.16132475109047E-01  2.13639096668554E-01  5.97977443396240E-01
  6.80766186791241E-01  8.06729235172096E-01  1.96142825914803E-01
  1.80614986625980E-01  6.93512880287249E-01  8.04841598816712E-01
  9.56616898947114E-01  7.18058020759608E-02  1.96349786611941E-01
  4.56549735023452E-01  4.28448357959765E-01  8.02189942887632E-01
  2.62199092195652E-02  6.99812251737264E-01  1.61707085528350E-01
  5.26163355708735E-01  8.00336512123363E-01  8.38938467310417E-01
  3.33407927374645E-01  1.01727625888635E+00  1.36365052727208E-01
  1.32084542318067E-01  3.62767513334133E-02  7.51167707760258E-01
  8.33104511455550E-01  4.83033154100420E-01  8.64712054516039E-01
  6.31918507874264E-01  4.63470077829537E-01  2.48156753095799E-01
  1.89534187277348E-01  3.58761244020741E-01  1.02798618174801E+00
  8.36615103048961E-01  7.29883755664347E-01  5.39061393168764E-01
  3.35890360760443E-01  7.68033211169326E-01  4.61605140663410E-01
  6.88523634103893E-01  1.41128924780795E-01 -2.84364428281818E-02
  9.90348311353531E-01  4.14158788099095E-01  3.55528645873722E-01
  4.90609519907997E-01  1.08507103749888E+00  6.43604368348597E-01

kptopt   1
            ngfft          72      75      75

ngkpt    2 2 2
nshiftk 1
shiftk 
0.5 0.5 0.5

ecut       30
pawecutdg  30
pawxcdev   0
ixc      -116133
nband    104
diemac   4

ecutsm  0.5
nstep    100
iscf     7
tolvrs   1.0E-20
ionmov   2
optcell  2
dilatmx  1.04
tolmxf   1e-8
ntime    250
strtarget 0.0 0.0 1.69946e-05 3*0.0 



# Printing flags
prtden    1
prteig    0
prtwf     1
prtposcar 0
prtcif    1
