#input for non-centrosymmetric orthorhombic HfO2

ndtset    2

autoparal 1

#Crystal Def.
ntypat   3
natom    26
typat    4*1 4*2 18*3
znucl    57 42 8
acell 3*1

rprim
  1.36366533906717E+01  4.04773171914117E-03 -7.10363510589857E-01
  4.00817277654750E-03  1.32953595124769E+01  7.40445925050501E-04
 -7.12225240200323E-01  5.44222911231375E-04  1.35568345414189E+01

             xred      8.9547179196E-01  8.7608266599E-01  8.3454511132E-01
                       3.1849803871E-01  6.3074539537E-01  1.2920054307E-01
                       1.0467431665E-01  3.7588469410E-01  6.6541454575E-01
                       6.8165381528E-01  1.3162578931E-01  3.7036644268E-01
                       2.0286188299E-01  1.6860654015E-01  2.0604933511E-01
                       6.8956652721E-01  3.3859222619E-01  8.7960848082E-01
                       7.9717452448E-01  6.6906439813E-01  2.9444207581E-01
                       3.1047080629E-01  8.3829371858E-01  6.2021812655E-01
                       4.0168701709E-01  3.1625809784E-01  2.8698780296E-01
                       8.0433056264E-01  1.8063312303E-01  6.9309596558E-01
                       5.9809968679E-01  8.1629144224E-01  2.1321453016E-01
                       1.9560204352E-01  6.8052315189E-01  8.0654770164E-01
                       1.0275353006E+00  1.8970239278E-01  3.5853297929E-01
                       4.6179855798E-01  3.3682804092E-01  7.6842313219E-01
                      -2.8075678610E-02  6.8846652459E-01  1.4109910388E-01
                       5.3842983447E-01  8.3521485093E-01  7.3073626314E-01
                       1.9699800758E-01  9.5624460430E-01  7.2289429495E-02
                       1.6141109467E-01  2.6297553705E-02  7.0022756863E-01
                       8.3923884075E-01  5.2619065864E-01  8.0055915164E-01
                       8.0210435232E-01  4.5727949674E-01  4.2900735431E-01
                       1.3594469259E-01  3.3279955813E-01  1.0170995542E+00
                       8.6494520834E-01  8.3373779243E-01  4.8265547343E-01
                       2.4839775945E-01  6.3217227631E-01  4.6326174420E-01
                       7.5118466361E-01  1.3155533524E-01  3.5827871125E-02
                       6.4406060889E-01  4.9000383858E-01  1.0856096937E+00
                       3.5593574372E-01  9.9090583385E-01  4.1498001935E-01
 
kptopt   1
            ngfft          72      75      75
ngkpt    2 2 2
nshiftk 1
shiftk 
0.5 0.5 0.5
ecut       30
ecutsm  0.5
pawecutdg  30
pawxcdev   0
ixc      -116133
nband    104
diemac   4

# First SCF run       
#irdwfk1   1
nstep1    100
iscf1     7
tolvrs1   1.0E-20

#Refinement using tolwfr
nstep2    250
getwfk2   -1
iscf2     7
tolwfr2   1.0E-20

# Printing flags
prtden    1
prteig    0
prtwf     1
prtposcar 0
prtcif    1
