#input for non-centrosymmetric orthorhombic HfO2

ndtset    1
autoparal 1

#Crystal Def.

nsym      1
ntypat   3
natom    26
typat    4*1 4*2 18*3
znucl    57 42 8

acell 3*1

rprim
  1.36366533954258E+01  4.04805199572201E-03 -7.10363163006182E-01
  4.00848201107102E-03  1.32953597449765E+01  7.40388766148425E-04
 -7.12224928523676E-01  5.44148014219751E-04  1.35568338952717E+01

xred    
  8.95471786232796E-01  8.76082627352527E-01  8.34545177032391E-01
  3.18498098758883E-01  6.30745416256895E-01  1.29200523382262E-01
  1.04674314938542E-01  3.75884714562221E-01  6.65414514274400E-01
  6.81653808370019E-01  1.31625751944332E-01  3.70366471711350E-01
  2.02861918163829E-01  1.68606568055579E-01  2.06049304223271E-01
  6.89566509375280E-01  3.38592226738804E-01  8.79608445253681E-01
  7.97174502188274E-01  6.69064359720484E-01  2.94442072654621E-01
  3.10470803739800E-01  8.38293745793413E-01  6.20218164293203E-01
  4.01687078778312E-01  3.16258088665694E-01  2.86987728482423E-01
  8.04330567449321E-01  1.80633091126565E-01  6.93095978286042E-01
  5.98099768550426E-01  8.16291507928242E-01  2.13214441351049E-01
  1.95601993882000E-01  6.80523163293328E-01  8.06547712566670E-01
  1.02753533717554E+00  1.89702470835596E-01  3.58532962975927E-01
  4.61798530274808E-01  3.36827965753979E-01  7.68423110043437E-01
 -2.80756097895020E-02  6.88466416150384E-01  1.41099189984284E-01
  5.38429790430871E-01  8.35214890761327E-01  7.30736393811982E-01
  1.96997988182819E-01  9.56244596617935E-01  7.22894474462254E-02
  1.61411034412936E-01  2.62975394098537E-02  7.00227574807791E-01
  8.39238827827803E-01  5.26190655467255E-01  8.00559097749536E-01
  8.02104195476229E-01  4.57279459237797E-01  4.29007331350291E-01
  1.35944726912895E-01  3.32799526813237E-01  1.01709947620704E+00
  8.64945159565467E-01  8.33737699956839E-01  4.82655521492656E-01
  2.48397831355089E-01  6.32172310267217E-01  4.63261766513229E-01
  7.51184686715354E-01  1.31555413343383E-01  3.58279215967074E-02
  6.44060554037198E-01  4.90003930936073E-01  1.08560960717896E+00
  3.55935797009637E-01  9.90905862957931E-01  4.14980065336391E-01

kptopt   1
            ngfft          72      75      75

ngkpt    2 2 2
nshiftk 1
shiftk 
0.5 0.5 0.5

ecut       30
pawecutdg  30
pawxcdev   0
ixc      -116133
nband    104
diemac   4

ecutsm  0.5
nstep    100
iscf     7
tolvrs   1.0E-20
ionmov   2
optcell  2
dilatmx  1.04
tolmxf   1e-8
ntime    150
strtarget 1.69946e-05 5*0.0 



# Printing flags
prtden    1
prteig    0
prtwf     1
prtposcar 0
prtcif    1
