#input for non-centrosymmetric orthorhombic HfO2

ndtset    1
autoparal 1

#Crystal Def.

nsym      1
ntypat   3
natom    26
typat    4*1 4*2 18*3
znucl    57 42 8

acell 3*1

rprim
  1.33118864471378E+01 -7.80260055405011E-02 -2.11266474779652E-02
 -7.86735620774316E-02  1.35761339437668E+01 -6.90076145108232E-01
 -1.72408321405449E-02 -7.14716504003546E-01  1.35732162849754E+01

xred      
  8.76080138016259E-01  8.35211461048872E-01  8.94801896428622E-01
  3.75736189684582E-01  6.65235304136869E-01  1.04424874797763E-01
  1.29188073173763E-01  3.72114723802009E-01  6.81353093472255E-01
  6.31685586805648E-01  1.28739924965530E-01  3.18080848098016E-01
  1.69694224759073E-01  2.05180531859186E-01  2.03304297778468E-01
  6.67881466467043E-01  2.94578009889398E-01  7.97743100365841E-01
  8.39040894652123E-01  6.19386429677534E-01  3.10313062314799E-01
  3.37978292640176E-01  8.79658879152697E-01  6.88708172588764E-01
  3.16227716537509E-01  2.87130114703320E-01  4.03471472766507E-01
  8.16315397260276E-01  2.14588506765058E-01  5.99075261344213E-01
  6.81025962501625E-01  8.05942297853452E-01  1.96161666958934E-01
  1.80501364124219E-01  6.93693803040702E-01  8.04843499266414E-01
  9.57031605000486E-01  7.07958014851282E-02  2.00558252484754E-01
  4.56187886557446E-01  4.26784883244782E-01  8.03642478755211E-01
  2.59784818440981E-02  7.00994792981867E-01  1.60426425192524E-01
  5.26059018788381E-01  8.00954432858496E-01  8.38229586678319E-01
  3.32647804634666E-01  1.01828061765925E+00  1.34344523754082E-01
  1.33066508305518E-01  3.56038227681320E-02  7.49619841493979E-01
  8.32581234346642E-01  4.84527740041926E-01  8.64638046058981E-01
  6.31820464619267E-01  4.62107429993554E-01  2.47650420976177E-01
  1.87479271149777E-01  3.58948238803522E-01  1.02779249589852E+00
  8.37711836166873E-01  7.29116890375531E-01  5.39591344682406E-01
  3.35240548895851E-01  7.68362922706146E-01  4.60043331681891E-01
  6.90348787005499E-01  1.41178928395274E-01 -2.72590082549388E-02
  9.90780919264160E-01  4.15548027351897E-01  3.55222856609942E-01
  4.91710326754873E-01  1.08533548439262E+00  6.43218157875946E-01

kptopt   1
            ngfft          72      75      75

ngkpt    2 2 2
nshiftk 1
shiftk 
0.5 0.5 0.5

ecut       30
pawecutdg  30
pawxcdev   0
ixc      -116133
nband    104
diemac   4

ecutsm  0.5
nstep    100
iscf     7
tolvrs   1.0E-20
ionmov   2
optcell  2
dilatmx  1.04
tolmxf   1e-8
ntime    250
strtarget 5*0.0 -1.69946e-05  



# Printing flags
prtden    1
prteig    0
prtwf     1
prtposcar 0
prtcif    1
