#input for non-centrosymmetric orthorhombic HfO2

ndtset    2

autoparal 1

#Crystal Def.
ntypat   3
natom    26
typat    4*1 4*2 18*3
znucl    57 42 8
acell 3*1

rprim
  1.33118966989822E+01 -7.80299878650127E-02 -2.11085925023303E-02
 -7.86786083283351E-02  1.35761266047390E+01 -6.90041688903617E-01
 -1.72220309053751E-02 -7.14681919550115E-01  1.35732090831159E+01

             xred      8.7608032999E-01  8.3521208391E-01  8.9480017110E-01
                       3.7573456896E-01  6.6523228904E-01  1.0442549206E-01
                       1.2918998310E-01  3.7211590597E-01  6.8135314823E-01
                       6.3168121381E-01  1.2873665703E-01  3.1808160318E-01
                       1.6969083929E-01  2.0517978604E-01  2.0330736270E-01
                       6.6788392851E-01  2.9458004782E-01  7.9774168695E-01
                       8.3903916956E-01  6.1938705169E-01  3.1031254576E-01
                       3.3798094567E-01  8.7965907924E-01  6.8870743135E-01
                       3.1622794070E-01  2.8712958985E-01  4.0347154707E-01
                       8.1631577166E-01  2.1458945262E-01  5.9907295068E-01
                       6.8102377895E-01  8.0594067816E-01  1.9615958739E-01
                       1.8050189153E-01  6.9369403245E-01  8.0484305836E-01
                       9.5702755887E-01  7.0797038248E-02  2.0056560240E-01
                       4.5618933548E-01  4.2678546014E-01  8.0364310251E-01
                       2.5977232156E-02  7.0099730925E-01  1.6042588902E-01
                       5.2605864494E-01  8.0095564952E-01  8.3823289254E-01
                       3.3264268746E-01  1.0182782648E+00  1.3434935864E-01
                       1.3306781179E-01  3.5602884222E-02  7.4961340303E-01
                       8.3258308977E-01  4.8453086412E-01  8.6463366262E-01
                       6.3182158339E-01  4.6210486511E-01  2.4764986034E-01
                       1.8747596971E-01  3.5894387942E-01  1.0277913184E+00
                       8.3770591679E-01  7.2911677249E-01  5.3959074000E-01
                       3.3524960721E-01  7.6836173193E-01  4.6004318583E-01
                       6.9035409362E-01  1.4118146657E-01 -2.7259459411E-02
                       9.9078356500E-01  4.1555132888E-01  3.5522411951E-01
                       4.9171254205E-01  1.0853358315E+00  6.4321973976E-01
 
kptopt   1
            ngfft          72      75      75
ngkpt    2 2 2
nshiftk 1
shiftk 
0.5 0.5 0.5
ecut       30
ecutsm  0.5
pawecutdg  30
pawxcdev   0
ixc      -116133
nband    104
diemac   4

# First SCF run       
#irdwfk1   1
nstep1    100
iscf1     7
tolvrs1   1.0E-20

#Refinement using tolwfr
nstep2    250
getwfk2   -1
iscf2     7
tolwfr2   1.0E-20

# Printing flags
prtden    1
prteig    0
prtwf     1
prtposcar 0
prtcif    1
