#input for non-centrosymmetric orthorhombic HfO2

ndtset    1
autoparal 1

#Crystal Def.

nsym      1
ntypat   3
natom    26
typat    4*1 4*2 18*3
znucl    57 42 8

acell 3*1

rprim
  1.31807947029339E+01 -1.07608848363110E-03  5.25621675336802E-03
 -8.24449279953841E-04  1.36161732116167E+01  7.02717209383491E-01
  5.21452749924757E-03  7.29350082183991E-01  1.36172873853974E+01

xred
  8.68358228701284E-01  8.70354864466526E-01  8.19033148113405E-01
  3.68769708586109E-01  6.28178863512146E-01  1.80235660617586E-01
  1.24559049167604E-01  3.34758566593275E-01  6.04451608709431E-01
  6.24199485693501E-01  1.65039911181688E-01  3.95848520044704E-01
  1.61905154518722E-01  1.19810869638469E-01  1.89278134275416E-01
  6.62320698647539E-01  3.80178783205111E-01  8.10738738944499E-01
  8.30810356164231E-01  7.05030140887264E-01  2.98537313431259E-01
  3.30935798250518E-01  7.94329788780358E-01  7.01379502131992E-01
  3.19885352394832E-01  3.06450427205152E-01  3.03436503728977E-01
  8.19955478761218E-01  1.93354502917487E-01  6.98292672610824E-01
  6.82584558093927E-01  7.84733212516476E-01  9.89665120603172E-02
  1.82430753093903E-01  7.13810964736194E-01  9.00906258179011E-01
  9.72635472540546E-01  1.99449639015486E-01  3.39144302735295E-01
  4.72717459621713E-01  3.00391671922614E-01  6.61746754604521E-01
  4.34776324229977E-02  5.70010072874417E-01  3.01340203537235E-01
  5.43293336807211E-01  9.30120766465308E-01  6.97880213187449E-01
  3.70097743426769E-01  9.64498035089759E-01  2.51088919189058E-01
  1.65531832450912E-01 -1.77929997970176E-02  6.33998862298011E-01
  8.70308638973064E-01  5.35906251637216E-01  7.47735993040098E-01
  6.65755231650296E-01  5.17176514241063E-01  3.66916976331784E-01
  1.63914207842934E-01  2.30224721152925E-01  9.61167230084454E-01
  8.11496508864070E-01  8.57921956515425E-01  4.73215693827875E-01
  3.11421326837586E-01  6.42438624673581E-01  5.25935273890063E-01
  6.63235518789606E-01  2.72586022688926E-01  4.00030952143153E-02
  9.40284758139052E-03 -8.56934569684300E-02  1.44893592271672E-01
  5.09997620148418E-01  5.86731284851667E-01  8.53828316949728E-01

kptopt   1
ngkpt    2 2 2
nshiftk 1
shiftk 
0.5 0.5 0.5

ecut       30
pawecutdg  30
pawxcdev   0
ixc      -116133
nband    104
diemac   4

ecutsm  0.5
nstep    100
iscf     7
tolvrs   1.0E-20
ionmov   2
optcell  2
dilatmx  1.04
tolmxf   1e-8
ntime    150
strtarget 1*-5.09839e-05 2*0.0 3*0.0



# Printing flags
prtden    1
prteig    0
prtwf     1
prtposcar 0
prtcif    1
