#input for KTaO3

ndtset    3

autoparal 1

#Crystal Def.
ntypat   3
natom    26
typat    4*1 4*2 18*3
znucl    57 42 8
acell 3*1


rprim
  1.33252556622679E+01  0.00000000000000E+00  0.00000000000000E+00
  0.00000000000000E+00  1.35491285346899E+01  4.49546830586155E-01
  0.00000000000000E+00  4.76303763207224E-01  1.35485481144938E+01

             xred      8.7044106091E-01  8.7799173259E-01  8.2196807062E-01
                       3.7044106091E-01  6.2200826741E-01  1.7803192938E-01
                       1.2571819983E-01  3.3777647443E-01  6.0726637876E-01
                       6.2571819983E-01  1.6222352557E-01  3.9273362124E-01
                       1.6128821705E-01  1.1777361747E-01  1.8948055811E-01
                       6.6128821705E-01  3.8222638253E-01  8.1051944189E-01
                       8.3112121647E-01  7.0162752613E-01  2.9709294568E-01
                       3.3112121647E-01  7.9837247387E-01  7.0290705432E-01
                       3.1971348071E-01  3.0377163644E-01  3.0610672699E-01
                       8.1971348071E-01  1.9622836356E-01  6.9389327301E-01
                       6.8354580514E-01  7.8181020828E-01  1.0023186572E-01
                       1.8354580514E-01  7.1818979172E-01  8.9976813428E-01
                       9.7447855179E-01  2.0185625687E-01  3.4176745686E-01
                       4.7447855179E-01  2.9814374313E-01  6.5823254314E-01
                       4.4745767623E-02  5.7160017498E-01  2.9621886814E-01
                       5.4474576762E-01  9.2839982502E-01  7.0378113186E-01
                       3.6627362980E-01  9.6006027159E-01  2.4660074427E-01
                       1.6866361343E-01 -1.4715867803E-02  6.3508275934E-01
                       8.6627362980E-01  5.3993972841E-01  7.5339925573E-01
                       6.6866361343E-01  5.1471586780E-01  3.6491724066E-01
                       1.6038173726E-01  2.2443582392E-01  9.6154250519E-01
                       8.1293830568E-01  8.5866208038E-01  4.7543136515E-01
                       3.1293830568E-01  6.4133791962E-01  5.2456863485E-01
                       6.6038173726E-01  2.7556417608E-01  3.8457494805E-02
                       5.6904143230E-03 -8.6178942602E-02  1.4578454458E-01
                       5.0569041432E-01  5.8617894260E-01  8.5421545542E-01
 
#chksymbreak 0
kptopt   1
ngkpt    2 2 2
nshiftk 1
shiftk
0.5 0.5 0.5

ecut 30
ixc      -116133
nband    104
nstep    150
diemac   4


# Data set 1 - Refinement of already computed GS WFs       
irdwfk1   0
irdden1   0
iscf1     7
tolvrs1   1.0E-20
nstep1    100

# Data Set 2: Response Function calculation : d/dk 
rfelfd2    2 
rfdir2     1    1    1 

nqpt2      1 
qpt2       0.0  0.0  0.0  

getwfk2   -1 
getden2   -1 

kptopt2    2 

iscf2     -3 

tolwfr2    1.0d-22 

# Data set 3 : Response Function calculation - electric field perturbation, phonons, and strain

rfphon3   1            # Will consider phonon-type perturbation 
rfelfd3   3            # Electric Field
rfstrs3   3            # Strains

rfdir3    1   1   1    # Along all reduced coordinate axis 
rfatpol3  1   26        # All the atoms will be displaced 

nqpt3     1            # One wavevector is to be considered 
qpt3      0.0 0.0 0.0  # This wavevector is q=0 (Gamma) 

kptopt3   2            # Automatic generation of k points, taking 
                       # into account the time-reversal symmetry only 

getwfk3   1            # Read the ground-state wavefunctions 
getddk3   2
                                              
tolvrs3   1.0d-20      # SCF stopping criterion 
                       



# Printing flags
prtden    1
prteig    0
prtwf     1
prtposcar 0
prtcif    0

            ngfft          72      75      75
pawecutdg  30
pawxcdev   0
ecutsm 0.5
