#input for non-centrosymmetric orthorhombic HfO2

ndtset    1
autoparal 1

#Crystal Def.

nsym      1
ntypat   3
natom    26
typat    4*1 4*2 18*3
znucl    57 42 8

acell 3*1

rprim
  1.35749447237598E+01  6.95650314025876E-01  1.53106122036394E-01
  7.09092970328200E-01  1.35748753053151E+01 -4.18388643773673E-02
  1.52409813010118E-01 -4.97578717432759E-02  1.33101610428962E+01


xred      
  8.73819938833865E-01  8.19775125946389E-01  8.71936671645992E-01
  3.35684993835210E-01  6.05368934891231E-01  1.23441460050968E-01
  1.66018269700617E-01  3.95165071179093E-01  6.24468860888040E-01
  6.31945911750841E-01  1.82474641133164E-01  3.65147741634061E-01
  1.19206461842360E-01  1.90164652421070E-01  1.61510592302103E-01
  7.04742503652594E-01  2.97671843497812E-01  8.29423458380265E-01
  7.94250300990589E-01  7.01456970248356E-01  3.32419425230970E-01
  3.79592004275095E-01  8.11063330980929E-01  6.61877917229734E-01
  3.06958519129896E-01  3.01178637319144E-01  3.18770701442904E-01
  7.89031128887953E-01  9.63788971285933E-02  6.84863166083247E-01
  7.14141089193340E-01  8.98430134237586E-01  1.82521047387415E-01
  1.94127419149049E-01  6.92951548359427E-01  8.19621998350665E-01
  9.62467695351562E-01  2.54478285049672E-01  3.71199796176249E-01
  5.20058833889367E-01  3.66156377875623E-01  6.66176811207415E-01
 -1.42760482846554E-02  6.34958047962366E-01  1.67257857275071E-01
  5.35277847461841E-01  7.51526351501496E-01  8.65212390278939E-01
  2.26506420699172E-01  9.59844034324468E-01  1.60406850970420E-01
  2.66008651249357E-01  3.86519094949848E-02  6.67274990542123E-01
  8.59265118925366E-01  4.72821284810869E-01  8.13819265219577E-01
  6.41408009230724E-01  5.26361149118588E-01  3.08842928103387E-01
  2.01426916931995E-01  3.38960638385416E-01  9.74253882156559E-01
  9.24868459884788E-01  6.96253024833152E-01  5.43770692025022E-01
  3.01913235862848E-01  6.61363388800910E-01  4.73267403764866E-01
  5.67808438082332E-01  3.00275382559156E-01  4.18319231862735E-02
 -8.71051324089858E-02  1.47319147637804E-01  1.37477908646579E-02
  5.84853011862160E-01  8.58951190318204E-01  5.06934377599402E-01



kptopt   1
ngkpt    2 2 2
nshiftk 1
shiftk 
0.5 0.5 0.5

ecut       30
pawecutdg  30
pawxcdev   0
ixc      -116133
nband    104
diemac   4

ecutsm  0.5
nstep    100
iscf     7
tolvrs   1.0E-20
ionmov   2
optcell  2
dilatmx  1.04
tolmxf   1e-8
ntime    150
strtarget 3*0.0 0.0 3.39893e-05 0.0



# Printing flags
prtden    1
prteig    0
prtwf     1
prtposcar 0
prtcif    1
