#input for non-centrosymmetric orthorhombic HfO2

ndtset    1
autoparal 1

#Crystal Def.

nsym      1
ntypat   3
natom    26
typat    4*1 4*2 18*3
znucl    57 42 8

acell 3*1

rprim
  1.33152235509397E+01 -1.54099104649643E-01 -4.20728392019541E-02
 -1.55154969277246E-01  1.35768451548963E+01 -6.87963110500156E-01
 -3.45053395963420E-02 -7.12551755225886E-01  1.35747998761067E+01

xred      
  8.76089339763141E-01  8.35320542256647E-01  8.94228114940506E-01
  3.75658904754121E-01  6.65529612241121E-01  1.04076490343987E-01
  1.28114511410851E-01  3.72228630721802E-01  6.81216562465909E-01
  6.33705555902109E-01  1.29340081586235E-01  3.17869279310261E-01
  1.71009902750676E-01  2.04815109235757E-01  2.03724753278617E-01
  6.67030999480239E-01  2.93922144562383E-01  7.98168587640177E-01
  8.39488846219184E-01  6.19146443881566E-01  3.09944343383488E-01
  3.37303133663205E-01  8.79237668584628E-01  6.88280791042021E-01
  3.16101177354952E-01  2.88027392599947E-01  4.04679234040398E-01
  8.16613516369494E-01  2.14102140852776E-01  6.00658496065820E-01
  6.81202737368885E-01  8.06008645084612E-01  1.96330916481187E-01
  1.80177894472205E-01  6.93506767040267E-01  8.05267073553259E-01
  9.58006932299540E-01  6.94373049985582E-02  2.02916285806101E-01
  4.55651002939551E-01  4.24770400195329E-01  8.05779160468049E-01
  2.56960849969356E-02  7.01666015453507E-01  1.59525572165275E-01
  5.26060533559243E-01  8.01680788811891E-01  8.37323787153839E-01
  3.33202309780325E-01  1.01978484023005E+00  1.33517100791716E-01
  1.33960604086652E-01  3.48600984273794E-02  7.48863358628749E-01
  8.32332674955551E-01  4.85762805308792E-01  8.63057400652709E-01
  6.30862975586056E-01  4.61523136219804E-01  2.46557772548846E-01
  1.85755909004782E-01  3.59292786756650E-01  1.02841847133773E+00
  8.38701293701414E-01  7.29104140959566E-01  5.39106080350813E-01
  3.33442772058032E-01  7.67880146680361E-01  4.59716238668746E-01
  6.92206193382063E-01  1.41447518900922E-01 -2.65484064764669E-02
  9.89482205180719E-01  4.15916203772512E-01  3.54956333031199E-01
  4.92141988916138E-01  1.08568863459028E+00  6.42366202395076E-01

kptopt   1
            ngfft          72      75      75

ngkpt    2 2 2
nshiftk 1
shiftk 
0.5 0.5 0.5

ecut       30
pawecutdg  30
pawxcdev   0
ixc      -116133
nband    104
diemac   4

ecutsm  0.5
nstep    100
iscf     7
tolvrs   1.0E-20
ionmov   2
optcell  2
dilatmx  1.04
tolmxf   1e-8
ntime    250
strtarget 5*0.0 -3.39893e-05  



# Printing flags
prtden    1
prteig    0
prtwf     1
prtposcar 0
prtcif    1
