#input for KTaO3

ndtset    3

autoparal 1

#Crystal Def.
ntypat   3
natom    26
typat    4*1 4*2 18*3
znucl    57 42 8
acell 3*1


rprim
  1.32543075359697E+01  7.79992293601834E-02  3.76354412190983E-01
  5.79528960886714E-02  1.36367407810402E+01 -5.29882255762202E-01
  3.78336407506625E-01 -5.55376980983587E-01  1.36102841650328E+01

             xred      8.6616255915E-01  8.2462675305E-01  8.7883094862E-01
                       3.7710112938E-01  6.5690688063E-01  1.1001881743E-01
                       1.5324686432E-01  3.5280352861E-01  6.8957613550E-01
                       6.2039957190E-01  8.4699583298E-02  3.3934114792E-01
                       1.7118150133E-01  1.9482184285E-01  2.0408502764E-01
                       6.7291791070E-01  2.9272849368E-01  8.0302717512E-01
                       8.4352249509E-01  6.1884508045E-01  3.0948976951E-01
                       3.3322875147E-01  8.8258666196E-01  6.9036264797E-01
                       3.2089536944E-01  2.6856308627E-01  3.9251047166E-01
                       8.1186592219E-01  2.0144035491E-01  5.9810575006E-01
                       6.7746228519E-01  7.9570939619E-01  1.6745732267E-01
                       1.7885959327E-01  6.8473529534E-01  7.6577872480E-01
                       9.5092924230E-01  8.4808925464E-02  2.3235254930E-01
                       4.6519421968E-01  4.4174385054E-01  8.2206729828E-01
                       2.7664438473E-02  7.0252349577E-01  1.4187385393E-01
                       5.1857739004E-01  8.0124026963E-01  8.2956162615E-01
                       3.2465704915E-01  1.0055835545E+00  1.1934053335E-01
                       1.1807184855E-01  3.1262188023E-02  7.6368932819E-01
                       8.4297898577E-01  4.7559949033E-01  8.5159935276E-01
                       6.4556368146E-01  4.6275355475E-01  2.6335300071E-01
                       1.8166675885E-01  3.5561793822E-01  1.0318217424E+00
                       8.0885689808E-01  7.6786527526E-01  5.1543411888E-01
                       3.6766069126E-01  8.1809747901E-01  4.4764639013E-01
                       6.9393323900E-01  1.3971225802E-01 -1.9527702486E-02
                       1.0082902287E+00  4.4387736824E-01  3.8106078312E-01
                       4.6911137518E-01  1.1108473950E+00  6.7114318644E-01
 
nshiftk 1
shiftk 
0.5 0.5 0.5
#chksymbreak 0
kptopt   1
ngkpt    2 2 2

ecut 30
ixc      -116133
nband    104
nstep    150
diemac   4


# Data set 1 - Refinement of already computed GS WFs       
irdwfk1   0
irdden1   0
iscf1     7
tolvrs1   1.0E-20
nstep1    100

# Data Set 2: Response Function calculation : d/dk 
rfelfd2    2 
rfdir2     1    1    1 

nqpt2      1 
qpt2       0.0  0.0  0.0  

getwfk2   -1 
getden2   -1 

kptopt2    2 

iscf2     -3 

tolwfr2    1.0d-22 

# Data set 3 : Response Function calculation - electric field perturbation, phonons, and strain

rfphon3   1            # Will consider phonon-type perturbation 
rfelfd3   3            # Electric Field
rfstrs3   3            # Strains

rfdir3    1   1   1    # Along all reduced coordinate axis 
rfatpol3  1   26        # All the atoms will be displaced 

nqpt3     1            # One wavevector is to be considered 
qpt3      0.0 0.0 0.0  # This wavevector is q=0 (Gamma) 

kptopt3   2            # Automatic generation of k points, taking 
                       # into account the time-reversal symmetry only 

getwfk3   1            # Read the ground-state wavefunctions 
getddk3   2
                                              
tolvrs3   1.0d-20      # SCF stopping criterion 
                       



# Printing flags
prtden    1
prteig    0
prtwf     1
prtposcar 0
prtcif    0

ecutsm  0.5
            ngfft          72      75      75
pawecutdg  30
pawxcdev   0
