#input for KTaO3

ndtset    2

autoparal 1

#Crystal Def.
ntypat   3
natom    104
typat    16*1 16*2 72*3
znucl    57 42 8
acell 3*1


rprim
  2.69500865677109E+01 -3.61409070397007E-01 -4.91282929427272E-01
 -3.53313847057933E-01  2.72026467928576E+01  2.01684385716771E-01
 -2.53300230044870E-01  9.19267637618223E-02  1.34952709101288E+01

             xred      4.3431824194E-01  4.4326886405E-01  8.2687324488E-01
                       1.4789673044E-01  3.0274384148E-01  1.2112240741E-01
                       9.8882417670E-02  1.6687084148E-01  5.9528512739E-01
                       3.2026322143E-01  6.5086820884E-02  3.4715732784E-01
                       9.1021823768E-01  4.4402976975E-01  8.7509398955E-01
                       6.6119007226E-01  3.4603590422E-01  1.5900369898E-01
                       5.6456926134E-01  2.0101283020E-01  6.8036994757E-01
                       8.2695339003E-01  7.9511282059E-02  3.6759695287E-01
                       4.2900106332E-01  9.3409169726E-01  8.2604909283E-01
                       1.7703299679E-01  8.3085094412E-01  1.3898120604E-01
                       8.5169595309E-02  6.6968819844E-01  5.6402592980E-01
                       3.1726153564E-01  5.7640635636E-01  3.4818132709E-01
                       9.0270489384E-01  9.4201951531E-01  8.5656256904E-01
                       6.4744000527E-01  8.1511368981E-01  1.6994113777E-01
                       5.5458454227E-01  6.8317639410E-01  6.4190892444E-01
                       8.1784600657E-01  5.7605525829E-01  3.5148029405E-01
                       8.7554250744E-02  6.2207663662E-02  1.5656148734E-01
                       3.2591324695E-01  1.7632101690E-01  7.8947956400E-01
                       4.0112696258E-01  3.2612933045E-01  3.1915215260E-01
                       1.5817845466E-01  4.0208930647E-01  6.5530861636E-01
                       5.9913395071E-01  9.8782782902E-02  2.0756718906E-01
                       8.5481738140E-01  1.8029739518E-01  8.3979985700E-01
                       9.1531707304E-01  3.3274294606E-01  3.2257036364E-01
                       6.7570258491E-01  4.2628773616E-01  6.9718533585E-01
                       8.3439631762E-02  5.3848310464E-01  1.7730014393E-01
                       3.2589061214E-01  6.6358943142E-01  8.2131713930E-01
                       4.1494693064E-01  8.4757298158E-01  2.9419837855E-01
                       1.3764440871E-01  8.9418197602E-01  6.8275899483E-01
                       5.7798555864E-01  5.7949250268E-01  1.9716229061E-01
                       8.4455837888E-01  6.8185025539E-01  8.3051125207E-01
                       9.0399896958E-01  8.2657057226E-01  3.2958686937E-01
                       6.7221586353E-01  9.3093485475E-01  6.9876059630E-01
                       7.3275912435E-02  3.6111554872E-01  8.1936478376E-01
                       1.7014520371E-01  1.5381111312E-01  2.7655625388E-01
                       3.4797742365E-01  3.5307786360E-01  9.8930613892E-02
                       4.2090774758E-01  9.8854667502E-02  6.8331318356E-01
                       5.8344794943E-01  3.5024591713E-01  8.3450097861E-01
                       6.5992575149E-01  1.5212470074E-01  4.0178752019E-01
                       8.4777026889E-01  4.2554890235E-01  2.0373381772E-01
                       9.2432896063E-01  1.4935034902E-01  6.4492385049E-01
                       7.2744894192E-02  8.0675827861E-01  8.0223849488E-01
                       1.5584363773E-01  6.4154681804E-01  2.6255525179E-01
                       3.3965495502E-01  9.2138743738E-01  1.3158345737E-01
                       4.1023473941E-01  5.9024100537E-01  6.6922091086E-01
                       5.7704108791E-01  8.4711733331E-01  7.6378553829E-01
                       6.5553443756E-01  6.5790511227E-01  3.5584481217E-01
                       8.7320713835E-01  9.3116761853E-01  2.1026784660E-01
                       9.1655161724E-01  6.4626110281E-01  6.4369469589E-01
                       7.3948771743E-02  1.4083756085E-01  9.5730118591E-01
                       9.9664127594E-01  7.2004702050E-02  3.1651614302E-01
                       1.8045556681E-01  9.8378386068E-01  2.6470387014E-01
                       3.9304593380E-01  4.2450337985E-01  4.6542358516E-01
                       3.3504924357E-01  2.3326578105E-01  4.1129244587E-01
                       5.1685206886E-01  2.8096500967E-01  3.1996076274E-01
                       3.3272641670E-01  1.3064253002E-01  1.7863178810E-02
                       4.1308448159E-01  2.7158744387E-01  7.6340911863E-01
                       2.4444538801E-01  9.8638853538E-02  6.3815648205E-01
                       2.6431892738E-01  4.4127998829E-01  7.6026725618E-01
                       1.6958651935E-01  3.2310873383E-01  4.6978288676E-01
                       1.1074107048E-01  5.0213745730E-01  5.4635202472E-01
                       1.7443522940E-02  4.1497906443E-01  1.6865373284E-01
                       9.2029696360E-01  3.7079423455E-01  5.5416193870E-01
                       8.2054569011E-01  2.4670299619E-01  3.0013935123E-01
                       4.8583618286E-01  6.0876610043E-02  2.6188653895E-01
                       5.9908228856E-01  1.8085484432E-01  1.0182976685E+00
                       6.7294603748E-01  1.0064064900E+00  1.6470840596E-01
                       7.5192487310E-01  3.9109521719E-01  9.0081869739E-01
                       6.6803526284E-01  3.4888369498E-01  5.0703291527E-01
                       5.9015007653E-01  5.1647537847E-01  6.8923107131E-01
                       8.5432712028E-01  9.0364336179E-02  1.3814139764E-02
                       9.0546717515E-01  2.7935038181E-01  9.5008606976E-01
                       7.4111890351E-01  2.0500814918E-01  7.6316157132E-01
                       3.5478608710E-01  5.8233240556E-01  1.0288549687E-02
                       4.0566946859E-01  7.6125405894E-01  7.9793053433E-01
                       2.4431752415E-01  6.3984128863E-01  6.1404166917E-01
                       1.9136530956E-01  4.6962325183E-01  1.9358218967E-01
                       5.2343519491E-02  5.6438311645E-01  9.4071473138E-01
                       9.8755443579E-01  5.7952433064E-01  3.2016320563E-01
                       3.8956716201E-01  9.1904936729E-01  4.9265567458E-01
                       3.3488353823E-01  7.5051804285E-01  2.8344057055E-01
                       5.0322137584E-01  8.7744228593E-01  1.0202951531E-01
                       6.4520461910E-02 -8.9327779811E-03  6.3950152996E-01
                       2.3951983947E-01  9.1860967311E-01  8.2187225059E-01
                       1.6890932326E-01  8.2743878694E-01  4.8666200929E-01
                       6.8281210599E-01  5.0214908532E-01  2.3012180056E-01
                       4.8357517923E-01  6.0459874834E-01  3.4469625587E-01
                       5.7870465716E-01  6.5971516919E-01  1.0034403054E+00
                       8.4071308167E-01  5.9013866824E-01 -1.0271358105E-03
                       8.9441076224E-01  7.7901660164E-01  9.4725363113E-01
                       7.3121104979E-01  7.0412849851E-01  7.4445096114E-01
                       5.9743078412E-01  2.8472994714E-02  7.2395433968E-01
                       7.4251323419E-01  8.8926636245E-01  9.0294316495E-01
                       6.8619940468E-01  8.8683915408E-01  4.6865881630E-01
                       1.6182477609E-02  7.8312900604E-01  2.8728111401E-01
                       9.0523562769E-01  8.4987036746E-01  5.6943765587E-01
                       8.1275742064E-01  7.4337737755E-01  2.8141874277E-01
                       5.4786829919E-02 -4.5038848353E-02  2.5653034399E-02
                       2.2181069999E-01  2.5192094433E-01  8.0538949748E-01
                       1.0139563846E+00  2.5628307225E-01  3.1482041478E-01
                       7.7932198844E-01  5.0083799910E-01  6.3802601783E-01
                       2.3133539508E-01  7.1930083500E-01  9.3037166917E-01
                       5.1951084209E-01  7.9159941180E-01  3.9605035592E-01
                       5.2241756709E-01  4.6688629917E-01  1.1681036830E-01
                       7.8803850539E-01  1.0118678918E+00  6.5319010090E-01
 
nshiftk 1
shiftk 
0.5 0.5 0.5
#chksymbreak 0
kptopt   1
ngkpt    1 1 1

ecut 30
ixc      -116133
nband    420
nstep    150
diemac   4

#Refinement using tolwfr
irdwfk1   1
nstep1    50
getwfk1   -1
iscf1     7
tolwfr1   1.0E-20

# Data set 3 : Response Function calculation - electric field perturbation, phonons, and strain

rfphon2   1            # Will consider phonon-type perturbation
rfelfd2   0            # Electric Field
rfstrs2   0            # Strains

rfdir2    1   1   1    # Along all reduced coordinate axis
rfatpol2 81 85

nqpt2     1            # One wavevector is to be considered
qpt2      0.0 0.0 0.0  # This wavevector is q=0 (Gamma)

kptopt2   2            # Automatic generation of k points, taking
                       # into account the time-reversal symmetry only

getwfk2   1            # Read the ground-state wavefunctions

#getddk2   2

tolvrs2   1.0d-20      # SCF stopping criterion




# Printing flags
prtden    1
prteig    0
prtwf     1
prtposcar 0
prtcif    0
ecutsm   0.5
ngfft         144     144      72
pawecutdg  30
pawxcdev   0
