#input for non-centrosymmetric orthorhombic HfO2

ndtset    1
autoparal 1

#Crystal Def.

nsym      1
ntypat   3
natom    26
typat    4*1 4*2 18*3
znucl    57 42 8


acell 3*1

rprim
  1.35390162313367E+01  7.14204410651749E-01 -4.34892478173074E-03
  7.19387446578892E-01  1.36966863453265E+01  1.84854639328685E-02
 -5.44836280399539E-03  1.77968515975920E-02  1.32776924179036E+01


xred
  8.67232640824594E-01  8.17879615533672E-01  8.66335269005301E-01
  3.33628972436897E-01  6.04562946740037E-01  1.23991174915853E-01
  1.65262650375228E-01  3.95961286484955E-01  6.23647771256389E-01
  6.28563102628106E-01  1.80668095964496E-01  3.69326492539386E-01
  1.20757795964401E-01  1.89496721342458E-01  1.61308256155610E-01
  7.06053094264046E-01  2.97142693907209E-01  8.31400011061602E-01
  7.93622980306543E-01  7.02489791133612E-01  3.30545343720714E-01
  3.79082240516901E-01  8.10386336810559E-01  6.61979122269104E-01
  3.06742341707780E-01  3.05995368946554E-01  3.19754064869196E-01
  7.87074318304120E-01  9.95077899917242E-02  6.83383984517327E-01
  7.11343032624892E-01  9.01595212556171E-01  1.84219516015681E-01
  1.91800298460683E-01  6.97639466376128E-01  8.19285876167594E-01
  9.63765468030084E-01  2.51193925958666E-01  3.67585309235569E-01
  5.16858568374413E-01  3.64869264076450E-01  6.67144001297066E-01
 -1.81028714539429E-02  6.36858506478200E-01  1.64918265301169E-01
  5.35017873555824E-01  7.47430591734305E-01  8.70107483446062E-01
  2.34322885132496E-01  9.63791051696933E-01  1.65958471244258E-01
  2.70333211017880E-01  3.81897769903857E-02  6.62122917972566E-01
  8.58387179159505E-01  4.72015265671038E-01  8.11537656529979E-01
  6.41200014832241E-01  5.27760817097547E-01  3.10570712689071E-01
  1.99911357529305E-01  3.39514251848368E-01  9.73433930828725E-01
  9.29835965199623E-01  6.94994952504062E-01  5.42128481659508E-01
  3.00878772681732E-01  6.61989059001075E-01  4.73717587078709E-01
  5.72465259109980E-01  3.01476203653471E-01  4.39305441704433E-02
 -8.40191893270308E-02  1.42328679208355E-01  9.05174042101014E-03
  5.87982037723175E-01  8.54262328309034E-01  5.12616015628278E-01



kptopt   1
ngkpt    2 2 2
nshiftk 1
shiftk 
0.5 0.5 0.5

ecut       30
pawecutdg  30
pawxcdev   0
ixc      -116133
nband    104
diemac   4

ecutsm  0.5
nstep    100
iscf     7
tolvrs   1.0E-20
ionmov   2
optcell  2
dilatmx  1.04
tolmxf   1e-8
ntime    150
strtarget 0.0 1.69946e-05 0.0 3*0.0



# Printing flags
prtden    1
prteig    0
prtwf     1
prtposcar 0
prtcif    1
