#input for non-centrosymmetric orthorhombic HfO2

ndtset    2

autoparal 1

#Crystal Def.
ntypat   3
natom    26
typat    4*1 4*2 18*3
znucl    57 42 8
acell 3*1

rprim
  1.35744721185305E+01  6.98436416488108E-01 -7.81833632655536E-02
  7.11845475672338E-01  1.35717875619188E+01  2.69836412626628E-02
 -7.84840667372346E-02  2.98483777417152E-02  1.33102366667133E+01

             xred      8.6933220038E-01  8.1802968204E-01  8.6686077376E-01
                       3.3444237521E-01  6.0478744075E-01  1.2421432968E-01
                       1.6462370040E-01  3.9493413818E-01  6.2378664658E-01
                       6.2712938278E-01  1.8061177475E-01  3.7131254224E-01
                       1.2015210281E-01  1.8901047678E-01  1.6185862422E-01
                       7.0561645378E-01  2.9832383034E-01  8.3217605820E-01
                       7.9497090071E-01  7.0221888130E-01  3.2983360112E-01
                       3.8043993029E-01  8.1009743020E-01  6.6139306161E-01
                       3.0611909164E-01  3.0537698492E-01  3.1961200658E-01
                       7.8600014937E-01  1.0034615726E-01  6.8311352138E-01
                       7.1186711317E-01  9.0271087455E-01  1.8407144122E-01
                       1.9327452686E-01  6.9761981006E-01  8.1882761964E-01
                       9.6393872257E-01  2.4981965843E-01  3.6633255190E-01
                       5.1548692317E-01  3.6574417777E-01  6.6786042227E-01
                      -1.8611846340E-02  6.3415305785E-01  1.6617096621E-01
                       5.3677071601E-01  7.4748249506E-01  8.6992756898E-01
                       2.3203399447E-01  9.6062086575E-01  1.6611742160E-01
                       2.7175495933E-01  3.9934240603E-02  6.6105738285E-01
                       8.5882846146E-01  4.7350314964E-01  8.0998713684E-01
                       6.4081942321E-01  5.2705899507E-01  3.1240251534E-01
                       1.9919012049E-01  3.3878823004E-01  9.7372164187E-01
                       9.3051467772E-01  6.9898058680E-01  5.4194002817E-01
                       2.9965387740E-01  6.6089668020E-01  4.7397987129E-01
                       5.7377807904E-01  3.0262052756E-01  4.3949846191E-02
                      -8.4700734460E-02  1.4233239966E-01  7.7378119689E-03
                       5.8657469850E-01  8.5399745447E-01  5.1175460828E-01
 
kptopt   1
            ngfft          72      75      75
ngkpt    2 2 2
nshiftk 1
shiftk 
0.5 0.5 0.5
ecut       30
ecutsm  0.5
pawecutdg  30
pawxcdev   0
ixc      -116133
nband    104
diemac   4

# First SCF run       
#irdwfk1   1
nstep1    100
iscf1     7
tolvrs1   1.0E-20

#Refinement using tolwfr
nstep2    250
getwfk2   -1
iscf2     7
tolwfr2   1.0E-20

# Printing flags
prtden    1
prteig    0
prtwf     1
prtposcar 0
prtcif    1
