#input for non-centrosymmetric orthorhombic HfO2

ndtset    2

autoparal 1

#Crystal Def.
ntypat   3
natom    26
typat    4*1 4*2 18*3
znucl    57 42 8

acell 3*7.1547 Angstrom

             xred      8.6966928969E-01  8.8786216218E-01  8.2455880691E-01
                       3.6966928969E-01  6.1213783782E-01  1.7544119309E-01
                       1.3765279193E-01  3.3677161805E-01  6.2248636841E-01
                       6.3765279193E-01  1.6322838195E-01  3.7751363159E-01
                       1.6201692361E-01  1.2119486229E-01  1.8987869209E-01
                       6.6201692361E-01  3.7880513771E-01  8.1012130791E-01
                       8.2843800604E-01  7.0121967195E-01  2.8889879628E-01
                       3.2843800604E-01  7.9878032805E-01  7.1110120372E-01
                       3.2407680538E-01  3.0393893666E-01  3.1044883996E-01
                       8.2407680538E-01  1.9606106334E-01  6.8955116004E-01
                       6.7935352080E-01  7.8028796179E-01  1.0074428465E-01
                       1.7935352080E-01  7.1971203821E-01  8.9925571535E-01
                       9.8385021064E-01  2.1473247137E-01  3.5324017992E-01
                       4.8385021064E-01  2.8526752863E-01  6.4675982008E-01
                       4.4087666289E-02  5.8373883265E-01  2.6864688793E-01
                       5.4408766629E-01  9.1626116735E-01  7.3135311207E-01
                       3.5563196897E-01  9.5614043211E-01  2.3730355618E-01
                       1.7421464554E-01 -1.4353119580E-02  6.4350216135E-01
                       8.5563196897E-01  5.4385956789E-01  7.6269644382E-01
                       6.7421464554E-01  5.1435311958E-01  3.5649783865E-01
                       1.6150164037E-01  2.2567867016E-01  9.6560747308E-01
                       8.1210548992E-01  8.6266793809E-01  4.7617620984E-01
                       3.1210548992E-01  6.3733206191E-01  5.2382379016E-01
                       6.6150164037E-01  2.7432132984E-01  3.4392526917E-02
                      -7.5989591777E-03 -7.1148839529E-02  1.4367733208E-01
                       4.9240104082E-01  5.7114883953E-01  8.5632266792E-01
 
kptopt   1
ngkpt    2 2 2
nshiftk 1
shiftk 
0.5 0.5 0.5

ecut       30
pawecutdg  30
pawxcdev   0
ixc      -116133
nband    104
diemac   4

# First SCF run       
#irdwfk1   1
nstep1    100
iscf1     7
tolvrs1   1.0E-20

#Refinement using tolwfr
nstep2    250
getwfk2   -1
iscf2     7
tolwfr2   1.0E-20

# Printing flags
prtden    1
prteig    0
prtwf     1
prtposcar 0
prtcif    1
