#input for non-centrosymmetric orthorhombic HfO2

ndtset    2

autoparal 1

#Crystal Def.
ntypat   3
natom    26
typat    4*1 4*2 18*3
znucl    57 42 8
acell 3*1

rprim
13.5880257  0.0000000   0.0000000  
0.0000000   13.5880257  0.0000000   
0.0000000   0.0000000   13.5880257   

             xred      8.6868224175E-01  8.8945702542E-01  8.2435326041E-01
                       3.6868224175E-01  6.1054297458E-01  1.7564673959E-01
                       1.4587829527E-01  3.3157462859E-01  6.2465160814E-01
                       6.4587829527E-01  1.6842537141E-01  3.7534839186E-01
                       1.6275223702E-01  1.2296407775E-01  1.8940961952E-01
                       6.6275223702E-01  3.7703592225E-01  8.1059038048E-01
                       8.2612274030E-01  7.0469300850E-01  2.8753683566E-01
                       3.2612274030E-01  7.9530699150E-01  7.1246316434E-01
                       3.2712718242E-01  3.0406919063E-01  3.0900416832E-01
                       8.2712718242E-01  1.9593080937E-01  6.9099583168E-01
                       6.7787566755E-01  7.7804517387E-01  9.8629479598E-02
                       1.7787566755E-01  7.2195482613E-01  9.0137052040E-01
                       9.8910765859E-01  2.1952088150E-01  3.5629615122E-01
                       4.8910765859E-01  2.8047911850E-01  6.4370384878E-01
                       4.2431539108E-02  5.9295405245E-01  2.6200267518E-01
                       5.4243153911E-01  9.0704594755E-01  7.3799732482E-01
                       3.4953682612E-01  9.5478577087E-01  2.3531034836E-01
                       1.7585150965E-01 -1.6886349839E-02  6.4343852359E-01
                       8.4953682612E-01  5.4521422913E-01  7.6468965164E-01
                       6.7585150965E-01  5.1688634984E-01  3.5656147641E-01
                       1.6594706715E-01  2.2748204043E-01  9.6621417089E-01
                       8.0874144954E-01  8.6555703604E-01  4.7450921491E-01
                       3.0874144954E-01  6.3444296396E-01  5.2549078509E-01
                       6.6594706715E-01  2.7251795957E-01  3.3785829107E-02
                      -1.5062414475E-02 -6.0383253691E-02  1.4220331988E-01
                       4.8493758553E-01  5.6038325369E-01  8.5779668012E-01
 
kptopt   1
ngkpt    2 2 2
nshiftk 1
shiftk 
0.5 0.5 0.5

ecutsm 0.5
ecut 30
pawecutdg  30
pawxcdev   0
ixc      -116133
nband    104
diemac   4

# First SCF run       
#irdwfk1   1
nstep1    100
iscf1     7
tolvrs1   1.0E-20

#Refinement using tolwfr
nstep2    250
getwfk2   -1
iscf2     7
tolwfr2   1.0E-20

# Printing flags
prtden    1
prteig    0
prtwf     1
prtposcar 0
prtcif    1
