#input for LaMoX

autoparal 1

#Crystal Def.
ntypat   3
natom    26
typat    4*1 4*2 18*3
znucl    57 42 8
acell 3*1.005 Angstrom

rprim 
7.1547  0.0000  0.0000
0.0000  7.1547  0.0000
0.0000  0.0000  7.1547

xred 
8.4775E-01   8.7941E-01   8.2422E-01
3.4775E-01   6.2059E-01   1.7578E-01
1.2977E-01   3.4086E-01   6.2755E-01
6.2977E-01   1.5914E-01   3.7245E-01
1.6926E-01   1.3739E-01   1.8200E-01
6.6926E-01   3.6261E-01   8.1800E-01
8.0836E-01   6.9104E-01   3.0011E-01
3.0836E-01   8.0896E-01   6.9989E-01
3.2764E-01   3.1643E-01   3.1919E-01
8.2764E-01   1.8357E-01   6.8081E-01
6.8843E-01   8.1785E-01   1.2557E-01
1.8843E-01   6.8215E-01   8.7443E-01
9.8306E-01   2.0399E-01   3.4088E-01
4.8306E-01   2.9601E-01   6.5912E-01
2.6212E-02   5.8388E-01   2.6311E-01
5.2621E-01   9.1612E-01   7.3689E-01
3.6042E-01   9.7057E-01   2.5558E-01
1.4865E-01  -8.5292E-03   6.5434E-01
8.6042E-01   5.2943E-01   7.4442E-01
6.4865E-01   5.0853E-01   3.4566E-01
1.8723E-01   2.7842E-01   9.7693E-01
8.0776E-01   8.5382E-01   4.8376E-01
3.0776E-01   6.4618E-01   5.1624E-01
6.8723E-01   2.2158E-01   2.3069E-02
4.0452E-02  -6.0149E-02   8.8170E-02
5.4045E-01   5.6015E-01   9.1183E-01

#chksymbreak 0
kptopt   1
ngkpt    2 2 2
nshiftk 1
shiftk
0.5 0.5 0.5

ngfft 72 72 72
ecutsm 0.5
ecut 30
ixc      -116133
nband    104
nstep    150
diemac   4
iscf     7
tolvrs   1.0E-20

ionmov  2
optcell 0
ntime   150
tolmxf  1e-8


# Printing flags
prtden    1
prteig    0
prtwf     1
prtposcar 0
prtcif    0

pawecutdg  30
pawxcdev   0
