#input for non-centrosymmetric orthorhombic HfO2

ndtset    2

autoparal 1

#Crystal Def.
ntypat   3
natom    26
typat    4*1 4*2 18*3
znucl    57 42 8
acell 3*1

rprim
  1.34527432518897E+01  4.93550940216899E-01  8.16591314041986E-03
  4.92481078137546E-01  1.37106334558635E+01  4.11779309883761E-01
  1.17300352866865E-02  4.12885088329858E-01  1.34002406285102E+01

             xred      8.5405704222E-01  9.0961463145E-01  8.4627301610E-01
                       3.4033345950E-01  6.6848579420E-01  1.7468395038E-01
                       1.2739551066E-01  3.3818035968E-01  5.9688038319E-01
                       6.4873152158E-01  1.6428343101E-01  3.3991075547E-01
                       1.9188089567E-01  1.4458269264E-01  1.5755968505E-01
                       6.5970123894E-01  3.5860664465E-01  7.8970906288E-01
                       7.9824426070E-01  6.8476700256E-01  3.8503621726E-01
                       3.1912499514E-01  7.9796460843E-01  7.1069918046E-01
                       3.2358250048E-01  3.3097996490E-01  2.8042441619E-01
                       8.4032630496E-01  1.8889123752E-01  6.5516721776E-01
                       7.5726126708E-01  8.2416869402E-01  1.7403895335E-01
                       1.5988861654E-01  6.5608604506E-01  8.3606066483E-01
                       9.9308052796E-01  1.9734011278E-01  3.0697872274E-01
                       4.7982901025E-01  2.8539008276E-01  6.4164767854E-01
                       4.4337961771E-02  6.2041394464E-01  3.7741613764E-01
                       4.9438543114E-01  8.6953373492E-01  8.6078309238E-01
                       3.9910073630E-01  9.8715085882E-01  2.4487583711E-01
                       1.7203999515E-01 -5.9517473495E-03  6.3353259605E-01
                       8.1588297005E-01  5.3676296061E-01  6.8362223336E-01
                       6.6559296307E-01  4.9822732117E-01  3.2533859576E-01
                       1.7394372364E-01  2.6525180897E-01  9.3396967833E-01
                       7.3092067661E-01  8.7245287609E-01  5.3389848350E-01
                       4.0013332492E-01  6.7720167845E-01  5.1462647391E-01
                       7.1676512206E-01  1.9252495732E-01 -9.0466329608E-03
                       1.0654694891E-01 -7.6565412886E-02  7.4704171976E-02
                       5.2291299468E-01  5.1365571753E-01  9.3120942876E-01
 
kptopt   1
            ngfft          72      75      75
ngkpt    2 2 2
nshiftk 1
shiftk 
0.5 0.5 0.5
ecut       30
ecutsm  0.5
pawecutdg  30
pawxcdev   0
ixc      -116133
nband    104
diemac   4

# First SCF run       
#irdwfk1   1
nstep1    100
iscf1     7
tolvrs1   1.0E-20

#Refinement using tolwfr
nstep2    250
getwfk2   -1
iscf2     7
tolwfr2   1.0E-20

# Printing flags
prtden    1
prteig    0
prtwf     1
prtposcar 0
prtcif    1
