#input for non-centrosymmetric orthorhombic HfO2

ndtset    1
autoparal 1

#Crystal Def.

nsym      1
ntypat   3
natom    26
typat    4*1 4*2 18*3
znucl    57 42 8

acell 3*1


rprim
  1.34527432044236E+01  4.93550897089393E-01  8.16607276093333E-03
  4.92481020761222E-01  1.37106339040385E+01  4.11779520343772E-01
  1.17301849557935E-02  4.12885309427542E-01  1.34002403844184E+01

xred     
  8.54057046178651E-01  9.09614636059353E-01  8.46273020059846E-01
  3.40333454152808E-01  6.68485812780606E-01  1.74683954598126E-01
  1.27395507206139E-01  3.38180358303825E-01  5.96880357732963E-01
  6.48731520910079E-01  1.64283424623971E-01  3.39910787369139E-01
  1.91880907959189E-01  1.44582717548338E-01  1.57559671080777E-01
  6.59701234398544E-01  3.58606648824627E-01  7.89709064504218E-01
  7.98244260051997E-01  6.84766969633253E-01  3.85036231334808E-01
  3.19124994679933E-01  7.97964621860666E-01  7.10699181709043E-01
  3.23582517918969E-01  3.30979963111513E-01  2.80424427618177E-01
  8.40326291028773E-01  1.88891230270580E-01  6.55167194853915E-01
  7.57261268550474E-01  8.24168634720387E-01  1.74038953707258E-01
  1.59888607986296E-01  6.56086060558030E-01  8.36060652149712E-01
  9.93080513056574E-01  1.97340171931014E-01  3.06978672485853E-01
  4.79828999812503E-01  2.85390099009690E-01  6.41647688044988E-01
  4.43379648447693E-02  6.20413905072251E-01  3.77416104180230E-01
  4.94385423426484E-01  8.69533711725980E-01  8.60783122588133E-01
  3.99100733563410E-01  9.87150871771607E-01  2.44875845447417E-01
  1.72040008052090E-01 -5.95173888893814E-03  6.33532592667974E-01
  8.15882986361026E-01  5.36762927642674E-01  6.83622205202428E-01
  6.65592922577944E-01  4.98227309071365E-01  3.25338652867387E-01
  1.73943802306173E-01  2.65251842072451E-01  9.33969660270581E-01
  7.30920670699781E-01  8.72452843810287E-01  5.33898499742965E-01
  4.00133284477040E-01  6.77201686819967E-01  5.14626472593630E-01
  7.16765113745461E-01  1.92524942120302E-01 -9.04662961514952E-03
  1.06546934573017E-01 -7.65653782935894E-02  7.47041765158145E-02
  5.22913031449400E-01  5.13655727791233E-01  9.31209440291945E-01









kptopt   1
ngfft          72      75      75

ngkpt    2 2 2
nshiftk 1
shiftk 
0.5 0.5 0.5

ecut       30
pawecutdg  30
pawxcdev   0
ixc      -116133
nband    104
diemac   4

ecutsm  0.5
nstep    100
iscf     7
tolvrs   1.0E-20
ionmov   2
optcell  2
dilatmx  1.04
tolmxf   1e-8
ntime    250
strtarget  5*0.0 1.69946e-05 


# Printing flags
prtden    1
prteig    0
prtwf     1
prtposcar 0
prtcif    1
