#input for non-centrosymmetric orthorhombic HfO2

ndtset    2

autoparal 1

#Crystal Def.
ntypat   3
natom    26
typat    4*1 4*2 18*3
znucl    57 42 8
acell 3*1

rprim
  1.35364417395066E+01  5.53499732766725E-04 -6.94146533676444E-01
  6.05588471808865E-04  1.34014853707410E+01  1.16929449883823E-03
 -6.91224874461477E-01  1.16875550549035E-03  1.35490887046510E+01

             xred      8.9520028068E-01  8.7624766500E-01  8.3538983804E-01
                       3.1817499860E-01  6.2914746695E-01  1.2789405897E-01
                       1.0530402959E-01  3.7578022653E-01  6.6482818320E-01
                       6.8144802142E-01  1.2988456762E-01  3.7272730073E-01
                       2.0247121200E-01  1.6813115401E-01  2.0527113947E-01
                       6.8965188304E-01  3.3939549877E-01  8.8048664022E-01
                       7.9727832304E-01  6.6895434339E-01  2.9558968610E-01
                       3.1060254891E-01  8.3867953500E-01  6.1939135583E-01
                       4.0187737378E-01  3.1531285365E-01  2.8649136372E-01
                       8.0560123002E-01  1.8123904808E-01  6.9439141105E-01
                       5.9764541960E-01  8.1558292536E-01  2.1438686296E-01
                       1.9575274972E-01  6.8108311909E-01  8.0573093211E-01
                       1.0268357564E+00  1.8973117143E-01  3.5945902390E-01
                       4.6068043150E-01  3.3739260250E-01  7.6817380735E-01
                      -2.7819529682E-02  6.8796166410E-01  1.4028165974E-01
                       5.4057900954E-01  8.3645095965E-01  7.2914607204E-01
                       1.9730833936E-01  9.5618088258E-01  7.3342250426E-02
                       1.6129329740E-01  2.5160330411E-02  7.0062348118E-01
                       8.3996007766E-01  5.2538992434E-01  7.9999115460E-01
                       8.0049034745E-01  4.5736201039E-01  4.2763494000E-01
                       1.3480278842E-01  3.3074129201E-01  1.0161655379E+00
                       8.6667612858E-01  8.3203936372E-01  4.8357760592E-01
                       2.4972270601E-01  6.3405894963E-01  4.6204012188E-01
                       7.4949423540E-01  1.3408245636E-01  3.7360200294E-02
                       6.4301631871E-01  4.9190053582E-01  1.0843876847E+00
                       3.5595202284E-01  9.9210945358E-01  4.1523768769E-01
 
kptopt   1
            ngfft          72      75      75
ngkpt    2 2 2
nshiftk 1
shiftk 
0.5 0.5 0.5
ecut       30
ecutsm  0.5
pawecutdg  30
pawxcdev   0
ixc      -116133
nband    104
diemac   4

# First SCF run       
#irdwfk1   1
nstep1    100
iscf1     7
tolvrs1   1.0E-20

#Refinement using tolwfr
nstep2    250
getwfk2   -1
iscf2     7
tolwfr2   1.0E-20

# Printing flags
prtden    1
prteig    0
prtwf     1
prtposcar 0
prtcif    1
