#input for KTaO3

ndtset    3

autoparal 1

#Crystal Def.
ntypat   3
natom    26
typat    4*1 4*2 18*3
znucl    57 42 8
acell 3*1


rprim
  1.35869946009572E+01  7.03197945859634E-01 -2.72290237745036E-03
  7.16569685119782E-01  1.35863295866041E+01  1.13284044842819E-02
 -3.50389947788607E-03  1.06054273676712E-02  1.32664797834841E+01

             xred      8.6981511081E-01  8.1852698838E-01  8.6801864684E-01
                       3.3457590941E-01  6.0477404617E-01  1.2418942597E-01
                       1.6488022080E-01  3.9544006314E-01  6.2404704909E-01
                       6.2779033093E-01  1.8073147132E-01  3.6994210962E-01
                       1.1978376500E-01  1.8923404545E-01  1.6166102757E-01
                       7.0542109040E-01  2.9810777877E-01  8.3133963480E-01
                       7.9458955645E-01  7.0178470922E-01  3.3060207763E-01
                       3.8008302728E-01  8.1054598853E-01  6.6194709449E-01
                       3.0614300882E-01  3.0419248397E-01  3.1957521090E-01
                       7.8624337069E-01  9.9282392705E-02  6.8291264257E-01
                       7.1286732856E-01  9.0151314967E-01  1.8337224738E-01
                       1.9311477595E-01  6.9744631970E-01  8.1928095506E-01
                       9.6345370390E-01  2.5116305915E-01  3.6803468406E-01
                       5.1687723575E-01  3.6642848649E-01  6.6738748443E-01
                      -1.7597721269E-02  6.3439801577E-01  1.6574286399E-01
                       5.3571877221E-01  7.4849061986E-01  8.6972387421E-01
                       2.3057073846E-01  9.6068269717E-01  1.6512864415E-01
                       2.7133819640E-01  4.0036825026E-02  6.6223190831E-01
                       8.5855950898E-01  4.7334834007E-01  8.1132163030E-01
                       6.4128487030E-01  5.2665847054E-01  3.1120874030E-01
                       1.9998883984E-01  3.3901321673E-01  9.7332517410E-01
                       9.2980839435E-01  6.9772256074E-01  5.4233274664E-01
                       3.0074081542E-01  6.6141393974E-01  4.7350605990E-01
                       5.7177873233E-01  3.0100091507E-01  4.3696837863E-02
                      -8.4754505925E-02  1.4356122495E-01  8.6304504345E-03
                       5.8692492412E-01  8.5450219167E-01  5.1084077940E-01
 
nshiftk 1
shiftk 
0.5 0.5 0.5
#chksymbreak 0
kptopt   1
ngkpt    2 2 2

ecut 30
ixc      -116133
nband    104
nstep    150
diemac   4


# Data set 1 - Refinement of already computed GS WFs       
irdwfk1   0
irdden1   0
iscf1     7
tolvrs1   1.0E-20
nstep1    100

# Data Set 2: Response Function calculation : d/dk 
rfelfd2    2 
rfdir2     1    1    1 

nqpt2      1 
qpt2       0.0  0.0  0.0  

getwfk2   -1 
getden2   -1 

kptopt2    2 

iscf2     -3 

tolwfr2    1.0d-22 

# Data set 3 : Response Function calculation - electric field perturbation, phonons, and strain

rfphon3   1            # Will consider phonon-type perturbation 
rfelfd3   3            # Electric Field
rfstrs3   3            # Strains

rfdir3    1   1   1    # Along all reduced coordinate axis 
rfatpol3  1   26        # All the atoms will be displaced 

nqpt3     1            # One wavevector is to be considered 
qpt3      0.0 0.0 0.0  # This wavevector is q=0 (Gamma) 

kptopt3   2            # Automatic generation of k points, taking 
                       # into account the time-reversal symmetry only 

getwfk3   1            # Read the ground-state wavefunctions 
getddk3   2
                                              
tolvrs3   1.0d-20      # SCF stopping criterion 
                       



# Printing flags
prtden    1
prteig    0
prtwf     1
prtposcar 0
prtcif    0

ecutsm  0.5
            ngfft          72      75      75
pawecutdg  30
pawxcdev   0
