#input for non-centrosymmetric orthorhombic HfO2

ndtset    1
autoparal 1

#Crystal Def.

nsym     1
ntypat   3
natom    26
typat    4*1 4*2 18*3
znucl    57 42 8

acell 3*1

rprim
  1.33041427555308E+01  2.66790596284259E-02 -1.56002186569931E-01
  1.91846225646868E-02  1.35704634316740E+01  6.78743393516352E-01
 -1.57565036084689E-01  7.04796662386687E-01  1.35815809240743E+01

             xred   
  8.75381861122861E-01  8.80331123395184E-01  8.22826206029079E-01
  3.60741306523312E-01  6.37081823017048E-01  1.84942165454705E-01
  1.23213957868063E-01  3.36804070692783E-01  6.05043460502069E-01
  6.25077517677137E-01  1.67515825296863E-01  3.93888922413820E-01
  1.62500622171227E-01  1.19365973525161E-01  1.90625087546280E-01
  6.61128681267600E-01  3.81326857776219E-01  8.11155553326414E-01
  8.28815039602752E-01  7.05628326767716E-01  2.98278355190483E-01
  3.33061805246649E-01  7.96109380699538E-01  7.01848987309106E-01
  3.17923696006683E-01  3.09647886773390E-01  2.96074799324259E-01
  8.20037512785316E-01  1.97256019018772E-01  6.88556900063726E-01
  6.83991265102129E-01  7.92196007929195E-01  9.64797057358644E-02
  1.84151655654802E-01  7.16925091850907E-01  8.97763549036513E-01
  9.74905003175595E-01  1.96774304400879E-01  3.36155975912047E-01
  4.72801152522468E-01  2.99362220519240E-01  6.58105323276971E-01
  3.76297640926343E-02  5.64702037560622E-01  3.06307280009829E-01
  5.47420980855004E-01  9.24297559296457E-01  7.01249651409984E-01
  3.73016372012840E-01  9.65471617068228E-01  2.57170629243806E-01
  1.70676745770122E-01 -1.39117434563128E-02  6.31730945383166E-01
  8.64331017808363E-01  5.38747990310695E-01  7.53643599997620E-01
  6.61618236952869E-01  5.20198421138802E-01  3.62196688938953E-01
  1.54017540522797E-01  2.17981779076807E-01  9.56949304057105E-01
  8.12331285771676E-01  8.59239031518642E-01  4.73773297518244E-01
  3.10341177160258E-01  6.41843699841592E-01  5.27032089721397E-01
  6.72132950707852E-01  2.60929343155780E-01  3.53342617436878E-02
  1.77066415378923E-02 -9.55154122149267E-02  1.51529530436198E-01
  5.05046210111822E-01  5.79690765043840E-01  8.61337730427823E-01
ngkpt    2 2 2
nshiftk 1
shiftk 
0.5 0.5 0.5

ecut       30
pawecutdg  30
pawxcdev   0
ixc      -116133
nband    104
diemac   4

ecutsm  0.5
nstep    100
iscf     7
tolvrs   1.0E-20
ionmov   2
optcell  2
dilatmx  1.04
tolmxf   1e-8
ntime    150
strtarget 3*0.0 0.0 -1.69946e-05 0.0



# Printing flags
prtden    1
prteig    0
prtwf     1
prtposcar 0
prtcif    1
