#input for non-centrosymmetric orthorhombic HfO2

ndtset    1

autoparal 1

#Crystal Def.
ntypat   3
natom    26
typat    4*1 4*2 18*3
znucl    57 42 8
acell 3*1


rprim
  1.34473705173482E+01  0.00000000000000E+00  0.00000000000000E+00
  0.00000000000000E+00  1.35328956242858E+01  6.71481484930771E-01
  0.00000000000000E+00  6.98678847103030E-01  1.35199257251346E+01

             xred      8.7082130012E-01  8.7275540563E-01  8.1851197888E-01
                       3.7082130012E-01  6.2724459437E-01  1.8148802112E-01
                       1.2380239908E-01  3.3556837792E-01  6.0515651070E-01
                       6.2380239908E-01  1.6443162208E-01  3.9484348930E-01
                       1.6062104797E-01  1.1943743855E-01  1.8940125892E-01
                       6.6062104797E-01  3.8056256145E-01  8.1059874108E-01
                       8.3159626582E-01  7.0443903534E-01  2.9755175173E-01
                       3.3159626582E-01  7.9556096466E-01  7.0244824827E-01
                       3.1852420883E-01  3.0544097196E-01  3.0533997226E-01
                       8.1852420883E-01  1.9455902804E-01  6.9466002774E-01
                       6.8505624796E-01  7.8620030640E-01  9.8178100558E-02
                       1.8505624796E-01  7.1379969360E-01  9.0182189944E-01
                       9.7516609763E-01  2.0039441733E-01  3.3953776669E-01
                       4.7516609763E-01  2.9960558267E-01  6.6046223331E-01
                       4.3338794738E-02  5.7338054480E-01  3.0160782741E-01
                       5.4333879474E-01  9.2661945520E-01  6.9839217259E-01
                       3.6501932448E-01  9.6192390888E-01  2.4901890048E-01
                       1.6929203261E-01 -1.5689083843E-02  6.3402103627E-01
                       8.6501932448E-01  5.3807609112E-01  7.5098109952E-01
                       6.6929203261E-01  5.1568908384E-01  3.6597896373E-01
                       1.6256017895E-01  2.3113558977E-01  9.5990851883E-01
                       8.1150178299E-01  8.5978931646E-01  4.7283518923E-01
                       3.1150178299E-01  6.4021068354E-01  5.2716481077E-01
                       6.6256017895E-01  2.6886441023E-01  4.0091481171E-02
                       7.7003188616E-03 -8.4323784166E-02  1.4287882653E-01
                       5.0770031886E-01  5.8432378417E-01  8.5712117347E-01


kptopt   1
ngkpt    2 2 2
nshiftk 1
shiftk 
0.5 0.5 0.5

ecut       30
pawecutdg  30
pawxcdev   0
ixc      -116133
nband    104
diemac   4

ecutsm  0.5
nstep    100
iscf     7
tolvrs   1.0E-20
ionmov   2
optcell  2
dilatmx  1.04
tolmxf   1e-8
ntime    150
strtarget 1*5.09839e-05 2*0.0 3*0.0



# Printing flags
prtden    1
prteig    0
prtwf     1
prtposcar 0
prtcif    1
