#input for KTaO3

ndtset    3

autoparal 1

#Crystal Def.
ntypat   3
natom    26
typat    4*1 4*2 18*3
znucl    57 42 8
acell 3*1


rprim
  1.36049169173233E+01  7.12018697510134E-03  6.89519355898292E-01
  7.06147976335662E-03  1.33353931045937E+01 -1.90572848482965E-03
  6.89807759055305E-01 -2.14465454805989E-03  1.34714729668333E+01

             xred      8.1902465270E-01  8.6846091727E-01  8.7014399075E-01
                       3.9485663214E-01  6.2358117974E-01  1.6394884738E-01
                       1.8059987019E-01  3.6958018415E-01  6.2864596553E-01
                       6.0518714816E-01  1.2368108804E-01  3.3551367353E-01
                       1.8941319221E-01  1.6109310056E-01  1.2043248174E-01
                       7.0269811154E-01  3.3118232589E-01  7.9495517871E-01
                       8.1030080345E-01  6.6124723799E-01  3.7978358573E-01
                       2.9742546172E-01  8.3175288443E-01  7.0463570609E-01
                       3.0593935874E-01  3.1896484863E-01  3.0605265330E-01
                       9.0100811229E-01  1.8383771147E-01  7.1123680446E-01
                       6.9519674370E-01  8.1877707097E-01  1.9343542786E-01
                       9.9771278692E-02  6.8389022825E-01  7.8827890249E-01
                       9.6165164300E-01  1.6370968317E-01  2.3306051302E-01
                       5.2694461945E-01  3.1214436227E-01  6.4111764485E-01
                       3.8768862088E-02  6.6239140913E-01  2.6885254925E-01
                       4.7301301380E-01  8.1215204539E-01  8.5870036905E-01
                       3.3881744314E-01  9.7352693392E-01  1.9980931605E-01
                       3.0242532483E-01  4.3880035816E-02  5.7090439333E-01
                       6.9675695230E-01  5.4290331882E-01  9.2961938821E-01
                       6.6158284506E-01  4.7359911445E-01  3.0046042248E-01
                       2.5039991070E-01  3.6717918440E-01  9.6261124416E-01
                       7.4864026453E-01  8.6783150347E-01  5.3736485096E-01
                       3.6461945345E-01  6.6756229205E-01  5.1521183447E-01
                       6.3590242619E-01  1.6647522463E-01 -1.6102031346E-02
                       1.4302513532E-01  9.7899673310E-03 -8.6306890506E-02
                       8.5603074062E-01  5.1080614778E-01  5.8763317845E-01
 
nshiftk 1
shiftk 
0.5 0.5 0.5
#chksymbreak 0
kptopt   1
ngkpt    2 2 2

ecut 30
ixc      -116133
nband    104
nstep    150
diemac   4


# Data set 1 - Refinement of already computed GS WFs       
irdwfk1   0
irdden1   0
iscf1     7
tolvrs1   1.0E-20
nstep1    100

# Data Set 2: Response Function calculation : d/dk 
rfelfd2    2 
rfdir2     1    1    1 

nqpt2      1 
qpt2       0.0  0.0  0.0  

getwfk2   -1 
getden2   -1 

kptopt2    2 

iscf2     -3 

tolwfr2    1.0d-22 

# Data set 3 : Response Function calculation - electric field perturbation, phonons, and strain

rfphon3   1            # Will consider phonon-type perturbation 
rfelfd3   3            # Electric Field
rfstrs3   3            # Strains

rfdir3    1   1   1    # Along all reduced coordinate axis 
rfatpol3  1   26        # All the atoms will be displaced 

nqpt3     1            # One wavevector is to be considered 
qpt3      0.0 0.0 0.0  # This wavevector is q=0 (Gamma) 

kptopt3   2            # Automatic generation of k points, taking 
                       # into account the time-reversal symmetry only 

getwfk3   1            # Read the ground-state wavefunctions 
getddk3   2
                                              
tolvrs3   1.0d-20      # SCF stopping criterion 
                       



# Printing flags
prtden    1
prteig    0
prtwf     1
prtposcar 0
prtcif    0

ecutsm  0.5
            ngfft          72      75      75
pawecutdg  30
pawxcdev   0
