#input for KTaO3

ndtset    3

autoparal 1

#Crystal Def.
ntypat   3
natom    26
typat    4*1 4*2 18*3
znucl    57 42 8
acell 3*1


rprim
  1.34894910640130E+01  3.11506856730943E-01  1.27056220073203E-01
  3.13960230105484E-01  1.36512108330824E+01  3.67622418180837E-01
  1.25980680226533E-01  3.65149702757026E-01  1.33939731645828E+01

             xred      8.5185536780E-01  9.0931417355E-01  8.4594493818E-01
                       3.4192206941E-01  6.7090427041E-01  1.7047149435E-01
                       1.2921587605E-01  3.4278969716E-01  5.9652950188E-01
                       6.4666222842E-01  1.6193895050E-01  3.4024043262E-01
                       1.9090903935E-01  1.4462673068E-01  1.5659656254E-01
                       6.6185540527E-01  3.5758758498E-01  7.9280582477E-01
                       7.9970193243E-01  6.8403244993E-01  3.8451449589E-01
                       3.1544710520E-01  8.0178919064E-01  7.0707270598E-01
                       3.2267809281E-01  3.3049468233E-01  2.8473974323E-01
                       8.4157516716E-01  1.9122046687E-01  6.5769444123E-01
                       7.5367701138E-01  8.2052479566E-01  1.7353963015E-01
                       1.6249621573E-01  6.4874086636E-01  8.3195556654E-01
                       9.9100348014E-01  1.9252421229E-01  3.0644546352E-01
                       4.8055419273E-01  2.8643541637E-01  6.4621313461E-01
                       4.4099047646E-02  6.2216740162E-01  3.7224370703E-01
                       4.9128835084E-01  8.6983607027E-01  8.5788243492E-01
                       3.9547905948E-01  9.8840771574E-01  2.4289609264E-01
                       1.6848258353E-01 -4.1748925484E-03  6.3583628939E-01
                       8.1800459049E-01  5.4042346204E-01  6.8400564328E-01
                       6.6622521965E-01  4.9361737960E-01  3.3159266066E-01
                       1.7516961670E-01  2.6887835074E-01  9.3592506883E-01
                       7.3313813900E-01  8.7290238305E-01  5.3357331488E-01
                       3.9794387787E-01  6.8179879963E-01  5.1002954552E-01
                       7.1432462674E-01  1.8925148477E-01 -7.6022423806E-03
                       1.0870094890E-01 -7.8592482308E-02  6.8116829537E-02
                       5.3359075523E-01  5.1256083963E-01  9.4073672020E-01
 
nshiftk 1
shiftk 
0.5 0.5 0.5
#chksymbreak 0
kptopt   1
ngkpt    2 2 2

ecut 30
ixc      -116133
nband    104
nstep    150
diemac   4


# Data set 1 - Refinement of already computed GS WFs       
irdwfk1   0
irdden1   0
iscf1     7
tolvrs1   1.0E-20
nstep1    100

# Data Set 2: Response Function calculation : d/dk 
rfelfd2    2 
rfdir2     1    1    1 

nqpt2      1 
qpt2       0.0  0.0  0.0  

getwfk2   -1 
getden2   -1 

kptopt2    2 

iscf2     -3 

tolwfr2    1.0d-22 

# Data set 3 : Response Function calculation - electric field perturbation, phonons, and strain

rfphon3   1            # Will consider phonon-type perturbation 
rfelfd3   3            # Electric Field
rfstrs3   3            # Strains

rfdir3    1   1   1    # Along all reduced coordinate axis 
rfatpol3  1   26        # All the atoms will be displaced 

nqpt3     1            # One wavevector is to be considered 
qpt3      0.0 0.0 0.0  # This wavevector is q=0 (Gamma) 

kptopt3   2            # Automatic generation of k points, taking 
                       # into account the time-reversal symmetry only 

getwfk3   1            # Read the ground-state wavefunctions 
getddk3   2
                                              
tolvrs3   1.0d-20      # SCF stopping criterion 
                       



# Printing flags
prtden    1
prteig    0
prtwf     1
prtposcar 0
prtcif    0

ecutsm  0.5
            ngfft          72      75      75
pawecutdg  30
pawxcdev   0
