#input for non-centrosymmetric orthorhombic HfO2

ndtset    1
autoparal 1

#Crystal Def.

nsym      1
ntypat   3
natom    26
typat    4*1 4*2 18*3
znucl    57 42 8

acell 3*1

rprim
  1.35937270271427E+01 -8.13052875218313E-04  8.31525428498633E-01
 -7.60939294162117E-04  1.32974760675623E+01 -1.02972971604793E-03
  8.25310839336383E-01 -1.76419957383620E-03  1.35867945432429E+01

             xred     
  8.16878209031249E-01  8.68357077255487E-01  8.67846283353616E-01
  3.95791890200299E-01  6.23383309427720E-01  1.66696238008176E-01
  1.83581401943810E-01  3.68466046934042E-01  6.32721322266657E-01
  6.03915028060858E-01  1.23223723243190E-01  3.33270913839581E-01
  1.89523432626489E-01  1.61901056087155E-01  1.20752371103500E-01
  7.01990644268883E-01  3.30741241232549E-01  7.93172400338091E-01
  8.10146006303913E-01  6.61701271302773E-01  3.79404218810005E-01
  2.98390662162977E-01  8.31194629348125E-01  7.07032785200839E-01
  3.02603718227433E-01  3.19035604868410E-01  3.07848102499970E-01
  9.02780962146820E-01  1.83782077556426E-01  7.11234204346496E-01
  6.96558737019387E-01  8.19020532325714E-01  1.92282940258885E-01
  9.79063114319167E-02  6.83961956155652E-01  7.89652777170432E-01
  9.59724864593723E-01  1.65021828880952E-01  2.32345071963656E-01
  5.28723311439939E-01  3.10054343790862E-01  6.40921883407257E-01
  3.95242780242384E-02  6.65304898992484E-01  2.66826003146573E-01
  4.71800142515295E-01  8.10005437642085E-01  8.59100885123891E-01
  3.37127893984370E-01  9.73511431837741E-01  1.98895327586150E-01
  3.04943158814741E-01  4.21464820326692E-02  5.71019421709654E-01
  6.95424573462724E-01  5.42059577635965E-01  9.28489195402311E-01
  6.62452602943351E-01  4.73439277283814E-01  3.00906998045614E-01
  2.53749866457521E-01  3.69283825033522E-01  9.65206416824978E-01
  7.46156045744195E-01  8.69152714852127E-01  5.35003026536910E-01
  3.65998016205993E-01  6.66025684805928E-01  5.18146177212533E-01
  6.33698357945224E-01  1.65786735660559E-01 -1.81680177744630E-02
  1.44256356962320E-01  1.18948900659678E-02 -8.57228870943767E-02
  8.56353527495150E-01  5.11544345774173E-01  5.85115940714096E-01


kptopt   1
ngkpt    2 2 2
nshiftk 1
shiftk 
0.5 0.5 0.5

ecut       30
pawecutdg  30
pawxcdev   0
ixc      -116133
nband    104
diemac   4

ecutsm  0.5
nstep    100
iscf     7
tolvrs   1.0E-20
ionmov   2
optcell  2
dilatmx  1.04
tolmxf   1e-8
ntime    150
strtarget 3*0.0  0.0  1.69946e-05  0.0



# Printing flags
prtden    1
prteig    0
prtwf     1
prtposcar 0
prtcif    1
