#input for KTaO3

ndtset    3

autoparal 1

#Crystal Def.
ntypat   3
natom    26
typat    4*1 4*2 18*3
znucl    57 42 8
acell 3*1


rprim
  1.33022657929065E+01 -2.77289517663135E-02 -1.82527677718379E-01
 -1.88046799865079E-02  1.35776269263447E+01 -6.49461569424099E-01
 -1.84358640409404E-01 -6.74008401245293E-01  1.35770865140351E+01

             xred      8.7634620492E-01  8.3803814018E-01  8.9538121383E-01
                       3.7345843765E-01  6.6828177646E-01  1.0796555662E-01
                       1.2273482871E-01  3.8761261545E-01  6.7423045172E-01
                       6.4065634784E-01  1.3884687004E-01  3.1441819514E-01
                       1.7113278005E-01  2.0562269456E-01  2.0111373629E-01
                       6.6725230085E-01  2.9773593512E-01  7.9738927730E-01
                       8.3677853923E-01  6.1911605584E-01  3.0991133885E-01
                       3.4017825738E-01  8.8181675944E-01  6.8855631956E-01
                       3.1486346534E-01  2.9199792664E-01  4.0399341804E-01
                       8.1698818528E-01  2.2129111439E-01  6.0261607477E-01
                       6.8172127958E-01  8.1010273972E-01  2.0825843022E-01
                       1.7933035585E-01  6.9949684403E-01  8.1548757609E-01
                       9.6254328710E-01  6.3540167613E-02  1.9078150373E-01
                       4.5140667349E-01  4.2209453799E-01  7.9266954495E-01
                       2.4457312249E-02  6.9760563310E-01  1.6578523900E-01
                       5.2700618140E-01  7.9850292341E-01  8.4484585187E-01
                       3.3889883874E-01  1.0203499135E+00  1.3987649540E-01
                       1.3848985720E-01  3.9922681678E-02  7.4280268362E-01
                       8.2734817440E-01  4.8763526814E-01  8.7173972131E-01
                       6.2537403043E-01  4.6593082165E-01  2.4371706110E-01
                       1.8903496613E-01  3.5880684939E-01  1.0247172022E+00
                       8.5030912662E-01  7.1117520308E-01  5.4563477128E-01
                       3.2553448692E-01  7.5580721858E-01  4.6739072003E-01
                       6.8779957829E-01  1.4189624767E-01 -2.8197865601E-02
                       9.8081238685E-01  4.0186120645E-01  3.4431120443E-01
                       4.9954411743E-01  1.0749118558E+00  6.3460427831E-01
 
nshiftk 1
shiftk 
0.5 0.5 0.5
#chksymbreak 0
kptopt   1
ngkpt    2 2 2

ecut 30
ixc      -116133
nband    104
nstep    150
diemac   4


# Data set 1 - Refinement of already computed GS WFs       
irdwfk1   0
irdden1   0
iscf1     7
tolvrs1   1.0E-20
nstep1    100

# Data Set 2: Response Function calculation : d/dk 
rfelfd2    2 
rfdir2     1    1    1 

nqpt2      1 
qpt2       0.0  0.0  0.0  

getwfk2   -1 
getden2   -1 

kptopt2    2 

iscf2     -3 

tolwfr2    1.0d-22 

# Data set 3 : Response Function calculation - electric field perturbation, phonons, and strain

rfphon3   1            # Will consider phonon-type perturbation 
rfelfd3   3            # Electric Field
rfstrs3   3            # Strains

rfdir3    1   1   1    # Along all reduced coordinate axis 
rfatpol3  1   26        # All the atoms will be displaced 

nqpt3     1            # One wavevector is to be considered 
qpt3      0.0 0.0 0.0  # This wavevector is q=0 (Gamma) 

kptopt3   2            # Automatic generation of k points, taking 
                       # into account the time-reversal symmetry only 

getwfk3   1            # Read the ground-state wavefunctions 
getddk3   2
                                              
tolvrs3   1.0d-20      # SCF stopping criterion 
                       



# Printing flags
prtden    1
prteig    0
prtwf     1
prtposcar 0
prtcif    0

ecutsm  0.5
            ngfft          72      75      75
pawecutdg  30
pawxcdev   0
