#input for non-centrosymmetric orthorhombic HfO2

ndtset    1
autoparal 1

#Crystal Def.

nsym      1
ntypat   3
natom    26
typat    4*1 4*2 18*3
znucl    57 42 8

acell 3*1

rprim
  1.35729989809699E+01  6.97074655902413E-01 -1.53022342136675E-01
  7.10137066036263E-01  1.35759853470618E+01  4.78468016836453E-02
 -1.53124975663421E-01  5.42261248967608E-02  1.33130488270863E+01


xred      
  8.67754213002833E-01  8.17357121555195E-01  8.64415796628711E-01
  3.33931025242428E-01  6.04870469437382E-01  1.24367720892605E-01
  1.64350902209635E-01  3.94569262531921E-01  6.23514621523401E-01
  6.26196980836240E-01  1.80217321069816E-01  3.72304579200351E-01
  1.20500818756014E-01  1.88843470794643E-01  1.62230414515818E-01
  7.05783269601115E-01  2.98631655959391E-01  8.32893928138119E-01
  7.95138022092081E-01  7.02435743931302E-01  3.28780021460347E-01
  3.80824651783801E-01  8.09565461285084E-01  6.61337551559379E-01
  3.05976490454458E-01  3.06988426236556E-01  3.19931539025222E-01
  7.85623138000842E-01  1.01750504587172E-01  6.82873934663838E-01
  7.10332194115011E-01  9.03835341776704E-01  1.84609151592826E-01
  1.93056591605513E-01  6.98619964175795E-01  8.18493322802537E-01
  9.64668272129188E-01  2.48756558262278E-01  3.65359487618092E-01
  5.14258379710781E-01  3.65269554829841E-01  6.67810680449733E-01
 -2.01807640924522E-02  6.34379496394394E-01  1.65434398879050E-01
  5.37369275756344E-01  7.45364758439361E-01  8.71379197992191E-01
  2.34240961388333E-01  9.61328528045270E-01  1.67759391487001E-01
  2.73432693471046E-01  3.98789591295533E-02  6.60007353498417E-01
  8.58691131855476E-01  4.73634332698875E-01  8.08854694067252E-01
  6.40643689029823E-01  5.27285928543075E-01  3.13370218426019E-01
  1.98174256632139E-01  3.38662844575123E-01  9.73675432547020E-01
  9.32290533606372E-01  6.99496763612157E-01  5.41104756383016E-01
  2.98895380180494E-01  6.60933895706816E-01  4.74097853799820E-01
  5.75249963527094E-01  3.03834135571849E-01  4.42554150182741E-02
 -8.46836769767027E-02  1.40967690943555E-01  7.20847262844016E-03
  5.87481606061798E-01  8.52521809922531E-01  5.13930065199091E-01



kptopt   1
ngkpt    2 2 2
nshiftk 1
shiftk 
0.5 0.5 0.5

ecut       30
pawecutdg  30
pawxcdev   0
ixc      -116133
nband    104
diemac   4

ecutsm  0.5
nstep    100
iscf     7
tolvrs   1.0E-20
ionmov   2
optcell  2
dilatmx  1.04
tolmxf   1e-8
ntime    150
strtarget 3*0.0 0.0 -3.39893e-05 0.0



# Printing flags
prtden    1
prteig    0
prtwf     1
prtposcar 0
prtcif    1
