#input for non-centrosymmetric orthorhombic HfO2

ndtset    2

autoparal 1

#Crystal Def.
ntypat   3
natom    26
typat    4*1 4*2 18*3
znucl    57 42 8
acell 3*1

rprim
  1.36365287785888E+01  6.30591557174997E-03  7.10394670410056E-01
  6.35428879819640E-03  1.32957896463483E+01 -2.48901994531610E-03
  7.07961315464354E-01 -2.77676494783538E-03  1.35553987628229E+01

             xred      8.1822548334E-01  8.6830420134E-01  8.7011203631E-01
                       3.9542452866E-01  6.2379321227E-01  1.6516337394E-01
                       1.8138922355E-01  3.6913665586E-01  6.2889562220E-01
                       6.0456943969E-01  1.2397229899E-01  3.3449630677E-01
                       1.8934273164E-01  1.6141490596E-01  1.2019171314E-01
                       7.0295723296E-01  3.3089113967E-01  7.9424821196E-01
                       8.1034268787E-01  6.6160107322E-01  3.7997829840E-01
                       2.9729456174E-01  8.3129978375E-01  7.0534652056E-01
                       3.0478401067E-01  3.1937905765E-01  3.0651516968E-01
                       9.0193316194E-01  1.8367408875E-01  7.1253639288E-01
                       6.9600893872E-01  8.1926714342E-01  1.9322613618E-01
                       9.8626205790E-02  6.8392241682E-01  7.8662341514E-01
                       9.6178919672E-01  1.6430073905E-01  2.3176474697E-01
                       5.2774989607E-01  3.1124904836E-01  6.4147367227E-01
                       3.8534302035E-02  6.6353806019E-01  2.6999189645E-01
                       4.7207830570E-01  8.1081915240E-01  8.5861537740E-01
                       3.3889922579E-01  9.7365434809E-01  1.9965113046E-01
                       3.0251878499E-01  4.3652728927E-02  5.7166110073E-01
                       6.9728346894E-01  5.4289549850E-01  9.2873272841E-01
                       6.6143996940E-01  4.7367160256E-01  3.0045253425E-01
                       2.5107934032E-01  3.6800396217E-01  9.6373945034E-01
                       7.4789035177E-01  8.6837138480E-01  5.3656112347E-01
                       3.6460565795E-01  6.6707109584E-01  5.1651576938E-01
                       6.3595154155E-01  1.6625556161E-01 -1.7330924108E-02
                       1.4366649234E-01  9.6019390312E-03 -8.5351293336E-02
                       8.5561525990E-01  5.1025890079E-01  5.8618949014E-01
 
kptopt   1
            ngfft          72      75      75
ngkpt    2 2 2
nshiftk 1
shiftk 
0.5 0.5 0.5
ecut       30
ecutsm  0.5
pawecutdg  30
pawxcdev   0
ixc      -116133
nband    104
diemac   4

# First SCF run       
#irdwfk1   1
nstep1    100
iscf1     7
tolvrs1   1.0E-20

#Refinement using tolwfr
nstep2    250
getwfk2   -1
iscf2     7
tolwfr2   1.0E-20

# Printing flags
prtden    1
prteig    0
prtwf     1
prtposcar 0
prtcif    1
