#input for non-centrosymmetric orthorhombic HfO2

ndtset    1
autoparal 1

#Crystal Def.

nsym      1
ntypat   3
natom    26
typat    4*1 4*2 18*3
znucl    57 42 8

acell 3*1

rprim
  1.36365288478263E+01  6.30604800396781E-03  7.10395008370249E-01
  6.35441210723007E-03  1.32957896463988E+01 -2.48890890538961E-03
  7.07961678091686E-01 -2.77664543050252E-03  1.35553983181451E+01

             xred      
  8.18225485853794E-01  8.68304225563964E-01  8.70112027150965E-01
  3.95424563566533E-01  6.23793196747815E-01  1.65163366719844E-01
  1.81389208449723E-01  3.69136627116775E-01  6.28895617572821E-01
  6.04569417174164E-01  1.23972287903654E-01  3.34496340801787E-01
  1.89342738027164E-01  1.61414928842135E-01  1.20191711893913E-01
  7.02957213134738E-01  3.30891130549068E-01  7.94248220654760E-01
  8.10342688078152E-01  6.61601039862083E-01  3.79978281389479E-01
  2.97294568417291E-01  8.31299776177709E-01  7.05346510410959E-01
  3.04784011004750E-01  3.19379084182297E-01  3.06515205123527E-01
  9.01933140466572E-01  1.83674074728599E-01  7.12536397469042E-01
  6.96008906756510E-01  8.19267133230371E-01  1.93226136015066E-01
  9.86261996605918E-02  6.83922435940988E-01  7.86623373543207E-01
  9.61789207281983E-01  1.64300813112362E-01  2.31764757371847E-01
  5.27749886347068E-01  3.11248973401406E-01  6.41473685935142E-01
  3.85343005535482E-02  6.63538101982113E-01  2.69991867408089E-01
  4.72078277480255E-01  8.10819234196469E-01  8.58615409360771E-01
  3.38899177766350E-01  9.73654370474515E-01  1.99651168351276E-01
  3.02518722455027E-01  4.36527002010672E-02  5.71661060794337E-01
  6.97283419169941E-01  5.42895510873326E-01  9.28732703821976E-01
  6.61440030099211E-01  4.73671555035108E-01  3.00452476036472E-01
  2.51079443734297E-01  3.68003981814783E-01  9.63739445853910E-01
  7.47890302985259E-01  8.68371329576259E-01  5.36561126782313E-01
  3.64605773641025E-01  6.67071069452174E-01  5.16515796260956E-01
  6.35951576855882E-01  1.66255562921341E-01 -1.73308849510267E-02
  1.43666472892776E-01  9.60197226905703E-03 -8.53512833727623E-02
  8.55615268160605E-01  5.10258883870947E-01  5.86189481602209E-01
kptopt   1
ngkpt    2 2 2
nshiftk 1
shiftk 
0.5 0.5 0.5

ecut       30
pawecutdg  30
pawxcdev   0
ixc      -116133
nband    104
diemac   4

ecutsm  0.5
nstep    100
iscf     7
tolvrs   1.0E-20
ionmov   2
optcell  2
dilatmx  1.04
tolmxf   1e-8
ntime    150
strtarget 1*1.69946e-05 2*0.0 3*0.0



# Printing flags
prtden    1
prteig    0
prtwf     1
prtposcar 0
prtcif    1
