#input for non-centrosymmetric orthorhombic HfO2

ndtset    1
autoparal 1

#Crystal Def.

nsym      1
ntypat   3
natom    26
typat    4*1 4*2 18*3
znucl    57 42 8

acell 3*1

rprim
  1.33056914980305E+01  2.53925506291533E-02  1.58217520389158E-01
  1.74341247125889E-02  1.35720566959484E+01 -6.73756268248233E-01
  1.60052339432836E-01 -6.97766798216337E-01  1.35816339249273E+01

xred      
  8.74665347463875E-01  8.32347715462141E-01  8.93522577189352E-01
  3.76569291972723E-01  6.63072892384788E-01  1.04648915924962E-01
  1.39274304739544E-01  3.62883878381978E-01  6.84950065839386E-01
  6.24256416663648E-01  1.18507956101430E-01  3.23094148964270E-01
  1.66959921555127E-01  2.03788408570878E-01  2.02561345550813E-01
  6.71252811326944E-01  2.94212326846188E-01  7.98021068057395E-01
  8.39173434374188E-01  6.18820618781105E-01  3.11618308910648E-01
  3.37438903141067E-01  8.80570918797159E-01  6.90088465486699E-01
  3.16431041719248E-01  2.82569329857396E-01  3.97821163009361E-01
  8.15715577974108E-01  2.08136115883385E-01  5.95843868625954E-01
  6.79614712050461E-01  8.02410129071290E-01  1.88312569249606E-01
  1.82105078907614E-01  6.90317994362086E-01  7.95443766003729E-01
  9.52481400023769E-01  7.61504745455693E-02  2.03707772053381E-01
  4.62127076649541E-01  4.34864674714429E-01  8.07297149430795E-01
  2.68483582086270E-02  7.00797398807864E-01  1.57287200991789E-01
  5.25061153427649E-01  8.03026747234904E-01  8.35543869698798E-01
  3.28663015918689E-01  1.01378696587835E+00  1.31059678673579E-01
  1.26733296618969E-01  3.42879676004898E-02  7.55680593173019E-01
  8.38259378222296E-01  4.79841697030434E-01  8.61318503869620E-01
  6.36443332823092E-01  4.61093715353609E-01  2.54707209028538E-01
  1.88622967458498E-01  3.58018044292835E-01  1.02750069370383E+00
  8.27652847722069E-01  7.40105307831935E-01  5.35365314800082E-01
  3.46399377416169E-01  7.82478477895737E-01  4.56404405896584E-01
  6.88677481710231E-01  1.40680405356257E-01 -2.63247150782083E-02
  9.96122500345910E-01  4.21699329152662E-01  3.62790519863306E-01
  4.82450971521667E-01  1.09553050975840E+00  6.51735541150859E-01
kptopt   1
            ngfft          72      75      75

ngkpt    2 2 2
nshiftk 1
shiftk 
0.5 0.5 0.5

ecut       30
pawecutdg  30
pawxcdev   0
ixc      -116133
nband    104
diemac   4

ecutsm  0.5
nstep    100
iscf     7
tolvrs   1.0E-20
ionmov   2
optcell  2
dilatmx  1.04
tolmxf   1e-8
ntime    250
strtarget 4*0.0 1.69946e-05 0.0 



# Printing flags
prtden    1
prteig    0
prtwf     1
prtposcar 0
prtcif    1
