#input for KTaO3

ndtset    3

autoparal 1

#Crystal Def.
ntypat   3
natom    26
typat    4*1 4*2 18*3
znucl    57 42 8
acell 3*1


rprim
  1.35085186641245E+01 -1.78158327272353E-04 -6.98480258609240E-01
 -1.16315267278392E-04  1.33260482399699E+01  1.10696889186073E-03
 -6.91807773273616E-01  1.13502985927225E-03  1.35936538174526E+01

             xred      8.9521956101E-01  8.7597145659E-01  8.3554867162E-01
                       3.1863618020E-01  6.2939445628E-01  1.2760144072E-01
                       1.0523104389E-01  3.7549371836E-01  6.6459129214E-01
                       6.8091477039E-01  1.3000375813E-01  3.7308915548E-01
                       2.0166365309E-01  1.6844369542E-01  2.0502294300E-01
                       6.8954445433E-01  3.3885401989E-01  8.8085399108E-01
                       7.9820322622E-01  6.6918162110E-01  2.9585212139E-01
                       3.1060531745E-01  8.3816545721E-01  6.1904789659E-01
                       4.0144519970E-01  3.1639616274E-01  2.8595819748E-01
                       8.0461478458E-01  1.8092978933E-01  6.9449482046E-01
                       5.9806367221E-01  8.1650144778E-01  2.1528693116E-01
                       1.9667589210E-01  6.8080286477E-01  8.0559076737E-01
                       1.0257563045E+00  1.8941855790E-01  3.5875915734E-01
                       4.5979479435E-01  3.3732535650E-01  7.6973449960E-01
                      -2.6857304401E-02  6.8804126317E-01  1.4076200002E-01
                       5.4139619292E-01  8.3628014208E-01  7.2752010130E-01
                       1.9830851941E-01  9.5633135025E-01  7.2199901494E-02
                       1.6154062430E-01  2.6015590600E-02  7.0049588558E-01
                       8.3974130214E-01  5.2609531359E-01  8.0012921933E-01
                       7.9999833387E-01  4.5732873762E-01  4.2870337521E-01
                       1.3360153171E-01  3.3161568369E-01  1.0165508068E+00
                       8.6795958469E-01  8.3274062979E-01  4.8328112742E-01
                       2.4913552998E-01  6.3259100493E-01  4.6242211220E-01
                       7.4979860777E-01  1.3245869497E-01  3.6849501945E-02
                       6.4407610381E-01  4.9169854779E-01  1.0849105449E+00
                       3.5493211974E-01  9.9192067950E-01  4.1474353834E-01
 
nshiftk 1
shiftk 
0.5 0.5 0.5
#chksymbreak 0
kptopt   1
ngkpt    2 2 2

ecut 30
ixc      -116133
nband    104
nstep    150
diemac   4


# Data set 1 - Refinement of already computed GS WFs       
irdwfk1   0
irdden1   0
iscf1     7
tolvrs1   1.0E-20
nstep1    100

# Data Set 2: Response Function calculation : d/dk 
rfelfd2    2 
rfdir2     1    1    1 

nqpt2      1 
qpt2       0.0  0.0  0.0  

getwfk2   -1 
getden2   -1 

kptopt2    2 

iscf2     -3 

tolwfr2    1.0d-22 

# Data set 3 : Response Function calculation - electric field perturbation, phonons, and strain

rfphon3   1            # Will consider phonon-type perturbation 
rfelfd3   3            # Electric Field
rfstrs3   3            # Strains

rfdir3    1   1   1    # Along all reduced coordinate axis 
rfatpol3  1   26        # All the atoms will be displaced 

nqpt3     1            # One wavevector is to be considered 
qpt3      0.0 0.0 0.0  # This wavevector is q=0 (Gamma) 

kptopt3   2            # Automatic generation of k points, taking 
                       # into account the time-reversal symmetry only 

getwfk3   1            # Read the ground-state wavefunctions 
getddk3   2
                                              
tolvrs3   1.0d-20      # SCF stopping criterion 
                       



# Printing flags
prtden    1
prteig    0
prtwf     1
prtposcar 0
prtcif    0

ecutsm  0.5
            ngfft          72      75      75
pawecutdg  30
pawxcdev   0
