#input for non-centrosymmetric orthorhombic HfO2

ndtset    2

autoparal 1

#Crystal Def.
ntypat   3
natom    26
typat    4*1 4*2 18*3
znucl    57 42 8
acell 3*1

rprim
  1.32740817676673E+01 -8.86828192424746E-02  1.28589820689892E-01
 -9.34465784934577E-02  1.35454502552424E+01 -2.03337047027567E-01
  1.54556009725857E-01 -2.03213656564054E-01  1.36601189243247E+01

             xred      8.7733576070E-01  8.5008616969E-01  8.6607227999E-01
                       3.3632451065E-01  6.1947186129E-01  1.9403409919E-01
                       1.4347884942E-01  3.5191499052E-01  6.3920443007E-01
                       6.4665998088E-01  1.1733433770E-01  3.1321639027E-01
                       1.3747526758E-01  1.7644184219E-01  1.8615350313E-01
                       6.5844927359E-01  3.2727230920E-01  8.0850019075E-01
                       8.5022978888E-01  6.7831041959E-01  3.2546035225E-01
                       3.6702712048E-01  8.5831764065E-01  7.0813463780E-01
                       2.9882076025E-01  6.4240266311E-01  8.0835816596E-01
                       3.1794948529E-01  3.1420157094E-01  3.3632609571E-01
                       6.6533114067E-01  7.8835981987E-01  1.6379419758E-01
                       8.5479566594E-01  1.8435557788E-01  7.5511044754E-01
                       1.1917156163E-02  6.8601988586E-01  1.1326284253E-01
                       2.8433585742E-01  9.7717343479E-01  1.5311611776E-01
                       8.0953344625E-01  8.6544255956E-01  4.9289461003E-01
                       7.5635567945E-01  5.5024169459E-01  7.6537893703E-01
                       5.5796359943E-01  9.5580171195E-01  8.3312360632E-01
                       9.7856929708E-01  2.0840650617E-01  3.9819815492E-01
                       7.0607303701E-01  4.7934726013E-01  3.6416632531E-01
                       1.7063350552E-01  3.4150013539E-01  1.0060691112E+00
                       4.7945905230E-01  2.6860736863E-01  6.4552638253E-01
                       1.6860970449E-01  6.3153350079E-03  7.3307869797E-01
                       1.0796679346E+00  6.0982038842E-01  4.4425134536E-01
                       5.7450061999E-01  3.2591443838E-01  3.9668915816E-02
                       4.2728312563E-01  8.3752890578E-01  4.7125063099E-01
                      -9.3942005049E-02  8.2271546191E-02  1.0940524917E+00
 
kptopt   1
            ngfft          72      75      75
ngkpt    2 2 2
nshiftk 1
shiftk 
0.5 0.5 0.5
ecut       30
ecutsm  0.5
pawecutdg  30
pawxcdev   0
ixc      -116133
nband    104
diemac   4

# First SCF run       
#irdwfk1   1
nstep1    100
iscf1     7
tolvrs1   1.0E-20

#Refinement using tolwfr
nstep2    250
getwfk2   -1
iscf2     7
tolwfr2   1.0E-20

# Printing flags
prtden    1
prteig    0
prtwf     1
prtposcar 0
prtcif    1
