#input for non-centrosymmetric orthorhombic HfO2

ndtset    2

autoparal 1

#Crystal Def.
ntypat   3
natom    26
typat    4*1 4*2 18*3
znucl    57 42 8
acell 3*1

rprim
  1.33180816876597E+01 -4.56273458991985E-04 -4.15062380451040E-04
 -6.27470597539233E-04  1.35632770399924E+01 -5.60561572447373E-01
 -2.98957492414970E-04 -5.85368989217897E-01  1.35572814585331E+01

             xred      8.7506236311E-01  8.3648542438E-01  8.9379007967E-01
                       3.7498009894E-01  6.6324105181E-01  1.0578593233E-01
                       1.2991276479E-01  3.7490527544E-01  6.7970219489E-01
                       6.2952426790E-01  1.2436788358E-01  3.2043833558E-01
                       1.6864568672E-01  2.0348589131E-01  2.0341071339E-01
                       6.6882014153E-01  2.9687007622E-01  7.9722244028E-01
                       8.3866387220E-01  6.1884730715E-01  3.1067194378E-01
                       3.3866306156E-01  8.8107058426E-01  6.8891018323E-01
                       3.1684357833E-01  2.8433467749E-01  4.0095737338E-01
                       8.1614547635E-01  2.1661941405E-01  5.9896163328E-01
                       6.8050530252E-01  8.0472298682E-01  1.9437753831E-01
                       1.8059529686E-01  6.9505335503E-01  8.0483405257E-01
                       9.5584134594E-01  7.1880100212E-02  2.0310389268E-01
                       4.5568223897E-01  4.2818653736E-01  7.9930413440E-01
                       2.5714933533E-02  7.0089326190E-01  1.5912146166E-01
                       5.2567570304E-01  7.9896278868E-01  8.4029602873E-01
                       3.3157735623E-01  1.0157335110E+00  1.3545581744E-01
                       1.3297254115E-01  3.7965169662E-02  7.4795720394E-01
                       8.3179462789E-01  4.8463844164E-01  8.6468581572E-01
                       6.3364289863E-01  4.6130600306E-01  2.5120378590E-01
                       1.8720993645E-01  3.5806451000E-01  1.0256370530E+00
                       8.3790894325E-01  7.2734127011E-01  5.3911764738E-01
                       3.3874011578E-01  7.7287726227E-01  4.6032762145E-01
                       6.8848760559E-01  1.4132867288E-01 -2.5873319224E-02
                       9.9353124728E-01  4.1510039557E-01  3.5537925198E-01
                       4.9285859541E-01  1.0857181481E+00  6.4522118428E-01
 
kptopt   1
            ngfft          72      75      75
ngkpt    2 2 2
nshiftk 1
shiftk 
0.5 0.5 0.5
ecut       30
ecutsm  0.5
pawecutdg  30
pawxcdev   0
ixc      -116133
nband    104
diemac   4

# First SCF run       
#irdwfk1   1
nstep1    100
iscf1     7
tolvrs1   1.0E-20

#Refinement using tolwfr
nstep2    250
getwfk2   -1
iscf2     7
tolwfr2   1.0E-20

# Printing flags
prtden    1
prteig    0
prtwf     1
prtposcar 0
prtcif    1
