#input for non-centrosymmetric orthorhombic HfO2

ndtset    1
autoparal 1

#Crystal Def.

nsym      1
ntypat   3
natom    26
typat    4*1 4*2 18*3
znucl    57 42 8

acell 3*1

rprim
  1.33180816652784E+01 -4.56252354232267E-04 -4.14942062339155E-04
 -6.27454169869595E-04  1.35632771803913E+01 -5.60561806269217E-01
 -2.98835953598276E-04 -5.85369235261135E-01  1.35572813068098E+01

xred      
  8.75062356103058E-01  8.36485431045862E-01  8.93790079388101E-01
  3.74980097491524E-01  6.63241057382653E-01  1.05785936258069E-01
  1.29912759321668E-01  3.74905276195121E-01  6.79702196699286E-01
  6.29524264785694E-01  1.24367878231125E-01  3.20438329921522E-01
  1.68645686993684E-01  2.03485905168158E-01  2.03410709235800E-01
  6.68820138074434E-01  2.96870073855426E-01  7.97222448066971E-01
  8.38663881326005E-01  6.18847298218761E-01  3.10671936106764E-01
  3.38663067004818E-01  8.81070586942405E-01  6.88910184392671E-01
  3.16843584196092E-01  2.84334678230939E-01  4.00957372594300E-01
  8.16145474002712E-01  2.16619422981322E-01  5.98961629709463E-01
  6.80505311430215E-01  8.04722975747013E-01  1.94377528595791E-01
  1.80595296830081E-01  6.95053356941401E-01  8.04834045415212E-01
  9.55841347620523E-01  7.18801153702350E-02  2.03103904828912E-01
  4.55682239394712E-01  4.28186535906253E-01  7.99304134838939E-01
  2.57149436823756E-02  7.00893275478849E-01  1.59121462827399E-01
  5.25675697314803E-01  7.98962780748061E-01  8.40296032260198E-01
  3.31577349004161E-01  1.01573351318460E+00  1.35455820921439E-01
  1.32972535596403E-01  3.79651637649221E-02  7.47957197717100E-01
  8.31794629955960E-01  4.84638427656929E-01  8.64685835872817E-01
  6.33642899689410E-01  4.61306004370707E-01  2.51203782319023E-01
  1.87209937527009E-01  3.58064512978536E-01  1.02563704225625E+00
  8.37908932319381E-01  7.27341266587944E-01  5.39117643507002E-01
  3.38740116052985E-01  7.72877250015652E-01  4.60327622825592E-01
  6.88487597443189E-01  1.41328671594504E-01 -2.58733130303289E-02
  9.93531257676147E-01  4.15100392354638E-01  3.55379251539831E-01
  4.92858599119377E-01  1.08571814900103E+00  6.45221184999609E-01
kptopt   1
            ngfft          72      75      75

ngkpt    2 2 2
nshiftk 1
shiftk 
0.5 0.5 0.5

ecut       30
pawecutdg  30
pawxcdev   0
ixc      -116133
nband    104
diemac   4

ecutsm  0.5
nstep    100
iscf     7
tolvrs   1.0E-20
ionmov   2
optcell  2
dilatmx  1.04
tolmxf   1e-8
ntime    250
strtarget 3*0.0 1.69946e-05 2*0.0 



# Printing flags
prtden    1
prteig    0
prtwf     1
prtposcar 0
prtcif    1
