#input for KTaO3

ndtset    3

autoparal 1

#Crystal Def.
ntypat   3
natom    26
typat    4*1 4*2 18*3
znucl    57 42 8
acell 3*1


rprim
  1.35729989610822E+01  6.97065476218727E-01 -1.53021777029828E-01
  7.10128239225523E-01  1.35759786740288E+01  4.78477978800268E-02
 -1.53124493465215E-01  5.42271442552018E-02  1.33130503097654E+01

             xred      8.6775445115E-01  8.1735784248E-01  8.6441571057E-01
                       3.3393154419E-01  6.0487032066E-01  1.2436728988E-01
                       1.6435031664E-01  3.9456931189E-01  6.2351462146E-01
                       6.2619632645E-01  1.8021706903E-01  3.7230505661E-01
                       1.2050030659E-01  1.8884351878E-01  1.6223057139E-01
                       7.0578280235E-01  2.9863193768E-01  8.3289439540E-01
                       7.9513884604E-01  7.0243574765E-01  3.2878004868E-01
                       3.8082516230E-01  8.0956513537E-01  6.6133743934E-01
                       3.0597613075E-01  3.0698792124E-01  3.1993142826E-01
                       7.8562264148E-01  1.0175104395E-01  6.8287403769E-01
                       7.1033266833E-01  9.0383524303E-01  1.8460935866E-01
                       1.9305699242E-01  6.9861974201E-01  8.1849294680E-01
                       9.6466748907E-01  2.4875572701E-01  3.6535945877E-01
                       5.1425773911E-01  3.6526954907E-01  6.6781129742E-01
                      -2.0179892867E-02  6.3437963138E-01  1.6543461258E-01
                       5.3736923833E-01  7.4536541907E-01  8.7137977245E-01
                       2.3423911151E-01  9.6132802754E-01  1.6775896627E-01
                       2.7343419055E-01  3.9879038810E-02  6.6000647742E-01
                       8.5869044867E-01  4.7363509268E-01  8.0885480128E-01
                       6.4064484376E-01  5.2728539694E-01  3.1337009242E-01
                       1.9817367327E-01  3.3866309688E-01  9.7367536625E-01
                       9.3229157487E-01  6.9949739007E-01  5.4110460396E-01
                       2.9889629556E-01  6.6093324470E-01  4.7409759904E-01
                       5.7524913341E-01  3.0383384338E-01  4.4255633394E-02
                      -8.4684550493E-02  1.4096850195E-01  7.2082555317E-03
                       5.8748251656E-01  8.5252120677E-01  5.1393015848E-01
 
nshiftk 1
shiftk 
0.5 0.5 0.5
#chksymbreak 0
kptopt   1
ngkpt    2 2 2

ecut 30
ixc      -116133
nband    104
nstep    150
diemac   4


# Data set 1 - Refinement of already computed GS WFs       
irdwfk1   0
irdden1   0
iscf1     7
tolvrs1   1.0E-20
nstep1    100

# Data Set 2: Response Function calculation : d/dk 
rfelfd2    2 
rfdir2     1    1    1 

nqpt2      1 
qpt2       0.0  0.0  0.0  

getwfk2   -1 
getden2   -1 

kptopt2    2 

iscf2     -3 

tolwfr2    1.0d-22 

# Data set 3 : Response Function calculation - electric field perturbation, phonons, and strain

rfphon3   1            # Will consider phonon-type perturbation 
rfelfd3   3            # Electric Field
rfstrs3   3            # Strains

rfdir3    1   1   1    # Along all reduced coordinate axis 
rfatpol3  1   26        # All the atoms will be displaced 

nqpt3     1            # One wavevector is to be considered 
qpt3      0.0 0.0 0.0  # This wavevector is q=0 (Gamma) 

kptopt3   2            # Automatic generation of k points, taking 
                       # into account the time-reversal symmetry only 

getwfk3   1            # Read the ground-state wavefunctions 
getddk3   2
                                              
tolvrs3   1.0d-20      # SCF stopping criterion 
                       



# Printing flags
prtden    1
prteig    0
prtwf     1
prtposcar 0
prtcif    0

ecutsm  0.5
            ngfft          72      75      75
pawecutdg  30
pawxcdev   0
