#input for non-centrosymmetric orthorhombic HfO2

ndtset    1
autoparal 1

#Crystal Def.

nsym      1
ntypat   3
natom    26
typat    4*1 4*2 18*3
znucl    57 42 8

acell 3*1

rprim
  1.36054512854103E+01  9.44777976286260E-03  7.17980502602118E-01
  9.48328552144343E-03  1.32198287472394E+01 -2.61645010389987E-03
  7.11588212349421E-01 -2.73025854133517E-03  1.36009702043275E+01

             xred    
  8.18527477424481E-01  8.67815856579513E-01  8.69814419972856E-01
  3.95599723669331E-01  6.23986502922592E-01  1.64966717957915E-01
  1.80723813213258E-01  3.69040259523109E-01  6.28225789515793E-01
  6.04516760892799E-01  1.24296300358381E-01  3.34524780869466E-01
  1.89188117374397E-01  1.61863906729741E-01  1.19741556002166E-01
  7.01904345716853E-01  3.30596761086629E-01  7.94439121603043E-01
  8.10434193031857E-01  6.62320779370241E-01  3.80364551484356E-01
  2.98393714973898E-01  8.30958373513642E-01  7.04943056140570E-01
  3.04013822786763E-01  3.19677360160344E-01  3.06305382414148E-01
  9.01466857991883E-01  1.82758800591118E-01  7.12907094339512E-01
  6.97494551959944E-01  8.19480722635119E-01  1.93190530574419E-01
  9.91899200925487E-02  6.82930606737221E-01  7.85513786722126E-01
  9.60993001832618E-01  1.64702555832662E-01  2.30643338040736E-01
  5.26481125156063E-01  3.11202811473264E-01  6.42130131433704E-01
  3.98408139848931E-02  6.63627110652245E-01  2.72432166298850E-01
  4.73060106221007E-01  8.11042948838968E-01  8.58196015784044E-01
  3.38758001350513E-01  9.72862921167502E-01  1.99453160641346E-01
  3.01595997908172E-01  4.34547751045254E-02  5.70428986118977E-01
  6.97632886836916E-01  5.42555803406077E-01  9.30241147294131E-01
  6.62075822180607E-01  4.72896437887265E-01  3.00695878611200E-01
  2.51242005720737E-01  3.69535826778474E-01  9.64218425519955E-01
  7.47046990261922E-01  8.70252098964009E-01  5.35987706025770E-01
  3.66492144925110E-01  6.66194723681834E-01  5.16845562858419E-01
  6.34777217355629E-01  1.65209791828810E-01 -1.77993195714565E-02
  1.44419206519942E-01  9.73033437364261E-03 -8.57149666923674E-02
  8.54131380631086E-01  5.11005629829179E-01  5.87304980041365E-01

kptopt   1
ngkpt    2 2 2
nshiftk 1
shiftk 
0.5 0.5 0.5

ecut       30
pawecutdg  30
pawxcdev   0
ixc      -116133
nband    104
diemac   4

ecutsm  0.5
nstep    100
iscf     7
tolvrs   1.0E-20
ionmov   2
optcell  2
dilatmx  1.04
tolmxf   1e-8
ntime    150
strtarget 0.00 1*-3.39893e-05 0.0 3*0.0



# Printing flags
prtden    1
prteig    0
prtwf     1
prtposcar 0
prtcif    1
