#input for non-centrosymmetric orthorhombic HfO2

ndtset    1

autoparal 1

#Crystal Def.
ntypat   3
natom    26
typat    4*1 4*2 18*3
znucl    57 42 8
acell 3*1

rprim     
  1.31996796595717E+01 -7.38547273114748E-02  1.19572952730250E-01
 -7.69081187297068E-02  1.36476164009975E+01 -2.08069044274185E-01
  1.44103950092011E-01 -2.09383298895009E-01  1.36623577289219E+01


nsym 1

xred
  8.77536145901140E-01  8.48497628112879E-01  8.67496963395835E-01
  3.38821177307305E-01  6.18175918837471E-01  1.95558377828801E-01
  1.41408928438990E-01  3.52284422341886E-01  6.39992852737917E-01
  6.44064109150644E-01  1.16951815744380E-01  3.12292351392872E-01
  1.36326989316974E-01  1.77431225793042E-01  1.86116561088293E-01
  6.61280171104015E-01  3.27514885486430E-01  8.08827756490008E-01
  8.50258318664784E-01  6.79809578867622E-01  3.26255759528618E-01
  3.65463533586590E-01  8.55763013152232E-01  7.06749509663125E-01
  2.97452029182254E-01  6.42144181274993E-01  8.08653197224322E-01
  3.17711397132911E-01  3.14044631860651E-01  3.36631704571048E-01
  6.64826394668983E-01  7.89020149810286E-01  1.62399986187964E-01
  8.54429374475578E-01  1.80476386109051E-01  7.55706091621963E-01
  1.39397709550777E-02  6.87542227733910E-01  1.14832529479920E-01
  2.85476932091185E-01  9.80199128209199E-01  1.54397041464019E-01
  8.09893767822531E-01  8.66882260852328E-01  4.92085728675296E-01
  7.68012157256131E-01  5.45524518112072E-01  7.65162721643182E-01
  5.57114059171701E-01  9.53425473978241E-01  8.30934147153745E-01
  9.75321376378781E-01  2.11913277084402E-01  3.97396805788269E-01
  7.02164425555150E-01  4.84560244621568E-01  3.63907036035636E-01
  1.68346927422443E-01  3.40820462053278E-01  1.00589756645900E+00
  4.80239898758646E-01  2.72115715249957E-01  6.46412498686136E-01
  1.67982056567349E-01  5.34084402797633E-03  7.31358956392532E-01
  1.07963701227719E+00  6.09171885627424E-01  4.45257390202112E-01
  5.75684184075871E-01  3.27197265120360E-01  3.95713424857325E-02
  4.26541129274773E-01  8.35333116443931E-01  4.69995066059011E-01
 -9.50946519818988E-02  8.07201169605476E-02  1.09451301738695E+00


#xcart
# 11.752963  11.856453  11.741288
#  4.337316   8.440616   2.660410
#  1.526600   4.953108   8.811522
#  8.896792   1.626099   4.213970
#  1.965755   2.352998   2.458472
#  8.763718   4.900825  11.053383
# 11.211203   9.290788   4.397229
#  4.563240  11.763612   9.512135
#  3.077668   9.207966  11.087062
#  4.441649   3.923000   4.530585
#  8.786844  10.893762   2.264988
# 10.555322   2.408611   9.676959
#  0.071812   9.456149   1.566296
#  3.647080  13.311086   1.785056
# 10.887206  11.738035   6.750651
# 10.879453   7.461794  10.663207
#  7.275134  12.668130  11.210969
# 13.127564   2.696690   5.286581
#  9.480990   6.534209   5.072964
#  2.274315   4.723118  13.727665
#  6.033715   5.367626   9.198105
#  2.236709   0.417262   9.731270
# 14.435729   8.210262   5.904226
#  7.795478   4.648996   0.534027
#  5.463084  11.303471   6.359541
# -1.264636   1.277976  14.714067






kptopt   1
ngkpt    2 2 2
nshiftk 1
shiftk 
0.5 0.5 0.5

ecut       30
pawecutdg  30
pawxcdev   0
ixc      -116133
nband    104
diemac   4
ecutsm   0.5

# First SCF run       
#irdwfk1   1
nstep    100
iscf     7
tolvrs   1.0E-20
ionmov   2
optcell  2
dilatmx  1.04
tolmxf   1e-10
ntime    250

# Printing flags
prtden    1
prteig    0
prtwf     1
prtposcar 0
prtcif    0
