#input for KTaO3

ndtset    3

autoparal 1

#Crystal Def.
ntypat   3
natom    26
typat    4*1 4*2 18*3
znucl    57 42 8
acell 3*1


rprim
  1.35752111661316E+01 -1.68337632150428E-01 -6.71823785682752E-01
 -1.66408125562962E-01  1.33051596116298E+01 -2.45283420127862E-02
 -6.69363704590967E-01 -1.62545172416772E-02  1.35788060193590E+01

             xred      8.9538472588E-01  8.7625173702E-01  8.3761612388E-01
                       3.1498088183E-01  6.3904480916E-01  1.3751785740E-01
                       1.0740930978E-01  3.7362855193E-01  6.6787979611E-01
                       6.7530480872E-01  1.2355637830E-01  3.8539132685E-01
                       2.0137895352E-01  1.7065142316E-01  2.0566143286E-01
                       6.8881630783E-01  3.4011553000E-01  8.8182171457E-01
                       7.9760043555E-01  6.6762310442E-01  2.9712600827E-01
                       3.0960287520E-01  8.3675360105E-01  6.1913589278E-01
                       4.0404208363E-01  3.1515793822E-01  2.9087394348E-01
                       8.1383980015E-01  1.7954850220E-01  6.9888849688E-01
                       6.0204378695E-01  8.1706398905E-01  2.2040181410E-01
                       2.0651260575E-01  6.8143380032E-01  8.0961609645E-01
                       1.0253200775E+00  1.8923168835E-01  3.5898717012E-01
                       4.6621086606E-01  3.2675823700E-01  7.5836367088E-01
                      -2.7798411048E-02  6.8802659846E-01  1.4171610603E-01
                       5.4462968521E-01  8.4791533110E-01  7.1355797779E-01
                       1.9157800547E-01  9.6158197262E-01  6.4737578413E-02
                       1.6493585663E-01  2.4414843292E-02  6.9791666225E-01
                       8.4405532038E-01  5.2705760594E-01  7.9839145474E-01
                       7.9391367783E-01  4.5220937376E-01  4.2244247925E-01
                       1.3918859835E-01  3.3774573556E-01  1.0198869198E+00
                       8.7102493658E-01  8.2824751324E-01  4.8696796368E-01
                       2.4387311916E-01  6.2607485410E-01  4.6538896609E-01
                       7.4418050064E-01  1.3830823654E-01  4.0017979427E-02
                       6.3614325056E-01  4.9922898860E-01  1.0759850045E+00
                       3.4582794192E-01  9.8236965655E-01  4.0370956341E-01
 
nshiftk 1
shiftk 
0.5 0.5 0.5
#chksymbreak 0
kptopt   1
ngkpt    2 2 2

ecut 30
ixc      -116133
nband    104
nstep    150
diemac   4


# Data set 1 - Refinement of already computed GS WFs       
irdwfk1   0
irdden1   0
iscf1     7
tolvrs1   1.0E-20
nstep1    100

# Data Set 2: Response Function calculation : d/dk 
rfelfd2    2 
rfdir2     1    1    1 

nqpt2      1 
qpt2       0.0  0.0  0.0  

getwfk2   -1 
getden2   -1 

kptopt2    2 

iscf2     -3 

tolwfr2    1.0d-22 

# Data set 3 : Response Function calculation - electric field perturbation, phonons, and strain

rfphon3   1            # Will consider phonon-type perturbation 
rfelfd3   3            # Electric Field
rfstrs3   3            # Strains

rfdir3    1   1   1    # Along all reduced coordinate axis 
rfatpol3  1   26        # All the atoms will be displaced 

nqpt3     1            # One wavevector is to be considered 
qpt3      0.0 0.0 0.0  # This wavevector is q=0 (Gamma) 

kptopt3   2            # Automatic generation of k points, taking 
                       # into account the time-reversal symmetry only 

getwfk3   1            # Read the ground-state wavefunctions 
getddk3   2
                                              
tolvrs3   1.0d-20      # SCF stopping criterion 
                       



# Printing flags
prtden    1
prteig    0
prtwf     1
prtposcar 0
prtcif    0

ecutsm  0.5
            ngfft          72      75      75
pawecutdg  30
pawxcdev   0
