#input for non-centrosymmetric orthorhombic HfO2

ndtset    1
autoparal 1

#Crystal Def.

nsym      1
ntypat   3
natom    26
typat    4*1 4*2 18*3
znucl    57 42 8

acell 3*1

rprim
  1.36274041819524E+01  8.93867270149434E-03 -9.73396565643845E-01
  8.85488999499996E-03  1.32787718472625E+01  2.01560408057038E-03
 -9.72657674134741E-01  1.58348789545670E-03  1.36004714462365E+01

xred      
  8.96285512648370E-01  8.77308682901503E-01  8.30737889094392E-01
  3.14385951126853E-01  6.32407645977784E-01  1.36868943658926E-01
  1.03495477610656E-01  3.77585206241450E-01  6.68841759167904E-01
  6.86500338495701E-01  1.33633072016691E-01  3.61404823881060E-01
  2.01824212453678E-01  1.68877193296585E-01  2.09291574616287E-01
  6.90008266328469E-01  3.37586575465445E-01  8.77381892115029E-01
  7.98311939092495E-01  6.69115371676330E-01  2.90255710827886E-01
  3.09976681458512E-01  8.38050947316414E-01  6.22551383586670E-01
  4.03895670282804E-01  3.15600705713517E-01  2.91704889624672E-01
  8.00544050088045E-01  1.81192826839128E-01  6.89511991682339E-01
  5.96019916749830E-01  8.15778896097934E-01  2.06911870888428E-01
  1.97481070862735E-01  6.81105730895623E-01  8.09739190006939E-01
  1.03068414701329E+00  1.92014012039690E-01  3.59667995015742E-01
  4.59272453472236E-01  3.33820983384697E-01  7.64882188460667E-01
 -3.02893180764483E-02  6.91159706010514E-01  1.40065892217379E-01
  5.39623983071206E-01  8.32739018606288E-01  7.37778540252220E-01
  1.92515314708339E-01  9.58536652241168E-01  7.17528300530456E-02
  1.63802186634476E-01  2.70320789676999E-02  6.98878014471078E-01
  8.35337907330270E-01  5.26828686609462E-01  8.01597081890496E-01
  8.08021254505926E-01  4.59674236422242E-01  4.29566612541255E-01
  1.33200144136868E-01  3.34934407212120E-01  1.01979929571296E+00
  8.66474304088542E-01  8.35817199398081E-01  4.79262943025808E-01
  2.43722094528724E-01  6.29741106567698E-01  4.67556880897059E-01
  7.57559720762525E-01  1.28893447310676E-01  3.21964862872840E-02
  6.44687491389465E-01  4.84569465510416E-01  1.08565880503432E+00
  3.56659229250283E-01  9.85996145227851E-01  4.16134514996128E-01



kptopt   1
            ngfft          72      75      75

ngkpt    2 2 2
nshiftk 1
shiftk 
0.5 0.5 0.5

ecut       30
pawecutdg  30
pawxcdev   0
ixc      -116133
nband    104
diemac   4

ecutsm  0.5
nstep    100
iscf     7
tolvrs   1.0E-20
ionmov   2
optcell  2
dilatmx  1.04
tolmxf   1e-8
ntime    150
strtarget 4*0.0 -3.39893e-05 0.0 



# Printing flags
prtden    1
prteig    0
prtwf     1
prtposcar 0
prtcif    1
