#input for KTaO3

ndtset    3

autoparal 1

#Crystal Def.
ntypat   3
natom    26
typat    4*1 4*2 18*3
znucl    57 42 8
acell 3*1


rprim
  1.35735328249615E+01 -3.54704467988166E-02  7.04321127044041E-01
 -4.27460510766227E-02  1.33111173140218E+01  1.52564178368677E-01
  6.97478356815050E-01  1.52771172084913E-01  1.35753391008463E+01

             xred      8.1902923443E-01  8.7160445608E-01  8.7242154527E-01
                       3.9565951326E-01  6.2429345865E-01  1.6560107313E-01
                       1.8200926900E-01  3.6549499109E-01  6.3041912740E-01
                       6.0570417840E-01  1.2368981984E-01  3.3539084559E-01
                       1.9041726494E-01  1.6118999849E-01  1.1880447793E-01
                       7.0120741697E-01  3.3260335823E-01  7.9424578206E-01
                       8.1132344638E-01  6.6231785073E-01  3.7980232934E-01
                       2.9714540503E-01  8.2908360230E-01  7.0423982852E-01
                       3.0302610619E-01  3.1877701751E-01  3.0626256399E-01
                       8.9840792852E-01  1.8293603849E-01  7.1355202701E-01
                       6.9457316580E-01  8.1967747367E-01  1.9375199728E-01
                       9.6099735051E-02  6.8455658075E-01  7.8859002117E-01
                       9.6094566136E-01  1.6142564465E-01  2.2814943433E-01
                       5.2585295383E-01  3.0826766253E-01  6.4177521279E-01
                       3.9907176435E-02  6.6657150054E-01  2.6856989059E-01
                       4.7212160326E-01  8.1405054953E-01  8.5909826584E-01
                       3.3987345890E-01  9.7420572611E-01  2.0108573538E-01
                       2.9876454962E-01  4.1712208313E-02  5.6793371613E-01
                       6.9464612112E-01  5.4363258767E-01  9.2570012713E-01
                       6.6251642082E-01  4.7347721376E-01  3.0191964362E-01
                       2.5406430865E-01  3.7071654038E-01  9.6202403208E-01
                       7.5060592072E-01  8.6583241353E-01  5.3533887678E-01
                       3.6644205181E-01  6.6608746785E-01  5.1967300110E-01
                       6.3589072101E-01  1.6689472695E-01 -1.4442312253E-02
                       1.4613035455E-01  1.2929010508E-02 -8.6238577898E-02
                       8.5763603396E-01  5.0797210186E-01  5.8633133569E-01
 
nshiftk 1
shiftk 
0.5 0.5 0.5
#chksymbreak 0
kptopt   1
ngkpt    2 2 2

ecut 30
ixc      -116133
nband    104
nstep    150
diemac   4


# Data set 1 - Refinement of already computed GS WFs       
irdwfk1   0
irdden1   0
iscf1     7
tolvrs1   1.0E-20
nstep1    100

# Data Set 2: Response Function calculation : d/dk 
rfelfd2    2 
rfdir2     1    1    1 

nqpt2      1 
qpt2       0.0  0.0  0.0  

getwfk2   -1 
getden2   -1 

kptopt2    2 

iscf2     -3 

tolwfr2    1.0d-22 

# Data set 3 : Response Function calculation - electric field perturbation, phonons, and strain

rfphon3   1            # Will consider phonon-type perturbation 
rfelfd3   3            # Electric Field
rfstrs3   3            # Strains

rfdir3    1   1   1    # Along all reduced coordinate axis 
rfatpol3  1   26        # All the atoms will be displaced 

nqpt3     1            # One wavevector is to be considered 
qpt3      0.0 0.0 0.0  # This wavevector is q=0 (Gamma) 

kptopt3   2            # Automatic generation of k points, taking 
                       # into account the time-reversal symmetry only 

getwfk3   1            # Read the ground-state wavefunctions 
getddk3   2
                                              
tolvrs3   1.0d-20      # SCF stopping criterion 
                       



# Printing flags
prtden    1
prteig    0
prtwf     1
prtposcar 0
prtcif    0

ecutsm  0.5
            ngfft          72      75      75
pawecutdg  30
pawxcdev   0
