#input for non-centrosymmetric orthorhombic HfO2

ndtset    1
autoparal 1

#Crystal Def.

nsym      1
ntypat   3
natom    26
typat    4*1 4*2 18*3
znucl    57 42 8

acell 3*1

rprim
  1.31941673404820E+01 -7.42486426078382E-02  1.21086342567164E-01
 -7.72717048389500E-02  1.36501909442264E+01 -2.10390555787185E-01
  1.45589506277643E-01 -2.11718920539510E-01  1.36638902092529E+01

xred      
8.7736868516E-01  8.4823184756E-01  8.6770937482E-01
3.3912888497E-01  6.1814484191E-01  1.9561106619E-01
1.4118358620E-01  3.5232142634E-01  6.4009191373E-01
6.4352650839E-01  1.1692577623E-01  3.1211084927E-01
1.3614293867E-01  1.7755280719E-01  1.8620433481E-01
6.6154092175E-01  3.2736623923E-01  8.0867992159E-01
8.5033948714E-01  6.7986426388E-01  3.2631923718E-01
3.6536620955E-01  8.5575735197E-01  7.0674472792E-01
2.9758624850E-01  6.4205012061E-01  8.0848440678E-01
3.1766969340E-01  3.1414328550E-01  3.3673177444E-01
6.6471274857E-01  7.8890154662E-01  1.6222946506E-01
8.5440294240E-01  1.7989030646E-01  7.5585292293E-01
1.4151616845E-02  6.8776290460E-01  1.1494079913E-01
2.8561763727E-01  9.8050943704E-01  1.5458062071E-01
8.0974355143E-01  8.6697885226E-01  4.9196659277E-01
7.6954214175E-01  5.4477376784E-01  7.6462592006E-01
5.5697888314E-01  9.5342090654E-01  8.3105293756E-01
9.7502347905E-01  2.1214935599E-01  3.9745845754E-01
7.0189363200E-01  4.8480447336E-01  3.6379258999E-01
1.6815878625E-01  3.4088489711E-01  1.0060425555E+00
4.8041036696E-01  2.7216577389E-01  6.4627681786E-01
1.6784567918E-01  5.2925540921E-03  7.3161136524E-01
1.0796156115E+00  6.0921078101E-01  4.4531335777E-01
5.7564175112E-01  3.2754810323E-01  3.9347793131E-02
4.2648720627E-01  8.3559556913E-01  4.6997437145E-01
-9.5241582855E-02  8.0613183885E-02  1.0946487862E+00



kptopt   1
            ngfft          72      75      75

ngkpt    2 2 2
nshiftk 1
shiftk 
0.5 0.5 0.5

ecut       30
pawecutdg  30
pawxcdev   0
ixc      -116133
nband    104
diemac   4

ecutsm  0.5
nstep    100
iscf     7
tolvrs   1.0E-20
ionmov   2
optcell  2
dilatmx  1.04
tolmxf   1e-8
ntime    150
strtarget 2*0.0 -1.69946e-05 3*0.0 



# Printing flags
prtden    1
prteig    0
prtwf     1
prtposcar 0
prtcif    1
