#input for non-centrosymmetric orthorhombic HfO2

ndtset    2

autoparal 1

#Crystal Def.
ntypat   3
natom    26
typat    4*1 4*2 18*3
znucl    57 42 8
acell 3*1

rprim
  1.31724309289697E+01  7.53296166418568E-02  1.23429546581894E-01
  8.09372281542962E-02  1.36644885654591E+01  2.13143408330173E-01
  1.47400626161715E-01  2.09413443119837E-01  1.36706707793840E+01


xred
  8.62929947972918E-01  8.52052852083000E-01  8.69853221383099E-01
  3.62961836680623E-01  6.16835831679484E-01  1.98793622450314E-01
  1.28869917085011E-01  3.47961548505803E-01  6.41295011259229E-01
  6.63295083070063E-01  1.18421590353372E-01  3.15058218366348E-01
  1.52970122265730E-01  1.80719573714847E-01  1.83562976736000E-01
  6.40075501044022E-01  3.53781712303813E-01  8.05060929298784E-01
  8.68904468519610E-01  6.78690085428142E-01  3.23241513407362E-01
  3.42183617051090E-01  8.28376191235066E-01  7.02122495607057E-01
  1.49641263954889E-01  6.79705107360204E-01  7.51709745765938E-01
  3.39712520070548E-01  2.88554484763535E-01  3.49540253253637E-01
  6.86884965897270E-01  8.16084649057266E-01  1.73214619035095E-01
  7.04720857294832E-01  1.39498994275439E-01  7.02874845692978E-01
  3.03849022730510E-02  7.13579864036844E-01  1.11944775949870E-01
  3.02289275277896E-01  9.85892560299006E-01  1.48115730598057E-01
  8.37642050205414E-01  8.41571858783595E-01  5.03560596708376E-01
  8.38345419517637E-01  5.02470417969241E-01  7.79278857369470E-01
  5.22623339341453E-01  7.70884661340348E-01  8.64808073235220E-01
  9.88786522871521E-01  1.89782800417042E-01  3.94705722360212E-01
  7.16846965590526E-01  4.83485312585880E-01  3.53962263089577E-01
  1.95906727560509E-01  3.67900134857255E-01  1.01909291379954E+00
  4.49494574707306E-01  4.52392148178700E-01  6.80061640179569E-01
  2.32279448421137E-01  4.44773134734349E-02  7.48406948683007E-01
  1.09989701707249E+00  5.80352379699387E-01  4.14368838473199E-01
  5.77674845289526E-01  3.35873022471231E-01  4.16627437047657E-02
  4.29171998360834E-01  8.30024212573486E-01  4.71845444614158E-01
 -7.56098335350306E-02  1.10602323958126E-01  1.06391154951458E+00


kptopt   1
ngfft          72      75      75
ngkpt    2 2 2
nshiftk 1
shiftk 
0.5 0.5 0.5
ecut       30
ecutsm   0.5
pawecutdg  30
pawxcdev   0
ixc      -116133
nband    104
diemac   4

nstep    100
iscf     7
tolvrs   1.0E-20
ionmov   2
optcell  2
dilatmx  1.04
tolmxf   1e-10
ntime    250



# Printing flags
prtden    1
prteig    0
prtwf     1
prtposcar 0
prtcif    1
