#input for non-centrosymmetric orthorhombic HfO2

ndtset    2

autoparal 1

#Crystal Def.
ntypat   3
natom    26
typat    4*1 4*2 18*3
znucl    57 42 8
acell 3*1

rprim
  1.32374110915041E+01  6.77418272814257E-02 -1.37842931738428E-01
  7.05800766751758E-02  1.37810059542331E+01 -7.10521463613321E-04
 -1.22030231289602E-01 -1.39055539931829E-03  1.36784795594883E+01


xcart
 11.724223  11.856548  11.726507
  4.369268   8.475846   2.643288
  1.503729   4.959917   8.802730
  8.907471   1.589237   4.183988
  2.022481   2.387018   2.446765
  8.675916   4.927345  10.997604
 11.265876   9.261182   4.383597
  4.479402  11.749597   9.459301
  2.689513   9.290360  10.866538
  4.489875   3.933817   4.568733
  8.811147  10.867533   2.302722
 10.155690   2.332954   9.461769
  0.126431   9.574497   1.564153
  3.722765  13.388386   1.741710
 10.972382  11.641526   6.789097
 11.004831   7.333542  10.762805
  7.216557  12.227720  11.293850
 13.164811   2.597225   5.280425
  9.548872   6.468530   5.038220
  2.351601   4.829562  13.777232
  5.974455   5.832598   9.263752
  2.363639   0.551395   9.833315
 14.488410   8.126334   5.806057
  7.756810   4.519753   0.469548
  5.420862  11.461773   6.297713
 -1.209363   1.349429  14.622766





kptopt   1
ngfft          72      75      75
ngkpt    2 2 2
nshiftk 1
shiftk 
0.5 0.5 0.5
ecut       30
ecutsm   0.5
pawecutdg  30
pawxcdev   0
ixc      -116133
nband    104
diemac   4

nstep    100
iscf     7
tolvrs   1.0E-20
ionmov   2
optcell  2
dilatmx  1.04
tolmxf   1e-10
ntime    250



# Printing flags
prtden    1
prteig    0
prtwf     1
prtposcar 0
prtcif    1
