#input for KTaO3

ndtset    3

autoparal 1

#Crystal Def.
ntypat   3
natom    26
typat    4*1 4*2 18*3
znucl    57 42 8
acell 3*1


rprim
  1.34533411899221E+01  6.01150654076561E-04 -6.93978700391021E-01
  6.53551984199374E-04  1.33391669947733E+01  1.19390026871081E-03
 -6.83567220929169E-01  1.18297341851447E-03  1.36107459185294E+01

             xred      8.9504933592E-01  8.7590261377E-01  8.3590859832E-01
                       3.1891079599E-01  6.2873561251E-01  1.2656426673E-01
                       1.0530302215E-01  3.7544270551E-01  6.6410787295E-01
                       6.8074725701E-01  1.2948300888E-01  3.7382193176E-01
                       2.0113210786E-01  1.6841138450E-01  2.0439410557E-01
                       6.8958288082E-01  3.3884389525E-01  8.8147737458E-01
                       7.9878868549E-01  6.6924856044E-01  2.9638797872E-01
                       3.1053858743E-01  8.3815987702E-01  6.1846408128E-01
                       4.0131386043E-01  3.1641620810E-01  2.8534360844E-01
                       8.0423721925E-01  1.8110362414E-01  6.9495825532E-01
                       5.9814269329E-01  8.1651532003E-01  2.1579183099E-01
                       1.9672430422E-01  6.8092475607E-01  8.0506392293E-01
                       1.0251091523E+00  1.8911636094E-01  3.5880611717E-01
                       4.5864930979E-01  3.3781299763E-01  7.7120128098E-01
                      -2.6131531829E-02  6.8815863316E-01  1.4068535880E-01
                       5.4228599566E-01  8.3650931163E-01  7.2668488347E-01
                       1.9923889816E-01  9.5640558014E-01  7.2099916205E-02
                       1.6137467203E-01  2.5958644320E-02  7.0051813691E-01
                       8.3969893844E-01  5.2605712560E-01  8.0000925798E-01
                       7.9963222565E-01  4.5743982232E-01  4.2873703757E-01
                       1.3238076849E-01  3.3119441187E-01  1.0162627305E+00
                       8.6890876914E-01  8.3241981992E-01  4.8356624488E-01
                       2.4954819089E-01  6.3276533456E-01  4.6201859532E-01
                       7.4948637157E-01  1.3257324664E-01  3.7211101310E-02
                       6.4462247448E-01  4.9206843732E-01  1.0851313741E+00
                       3.5472501538E-01  9.9233270769E-01  4.1478413721E-01
 
nshiftk 1
shiftk 
0.5 0.5 0.5
#chksymbreak 0
kptopt   1
ngkpt    2 2 2

ecut 30
ixc      -116133
nband    104
nstep    150
diemac   4


# Data set 1 - Refinement of already computed GS WFs       
irdwfk1   0
irdden1   0
iscf1     7
tolvrs1   1.0E-20
nstep1    100

# Data Set 2: Response Function calculation : d/dk 
rfelfd2    2 
rfdir2     1    1    1 

nqpt2      1 
qpt2       0.0  0.0  0.0  

getwfk2   -1 
getden2   -1 

kptopt2    2 

iscf2     -3 

tolwfr2    1.0d-22 

# Data set 3 : Response Function calculation - electric field perturbation, phonons, and strain

rfphon3   1            # Will consider phonon-type perturbation 
rfelfd3   3            # Electric Field
rfstrs3   3            # Strains

rfdir3    1   1   1    # Along all reduced coordinate axis 
rfatpol3  1   26        # All the atoms will be displaced 

nqpt3     1            # One wavevector is to be considered 
qpt3      0.0 0.0 0.0  # This wavevector is q=0 (Gamma) 

kptopt3   2            # Automatic generation of k points, taking 
                       # into account the time-reversal symmetry only 

getwfk3   1            # Read the ground-state wavefunctions 
getddk3   2
                                              
tolvrs3   1.0d-20      # SCF stopping criterion 
                       



# Printing flags
prtden    1
prteig    0
prtwf     1
prtposcar 0
prtcif    0

ecutsm  0.5
            ngfft          72      75      75
pawecutdg  30
pawxcdev   0
