#input for non-centrosymmetric orthorhombic HfO2

ndtset    2

autoparal 1

#Crystal Def.
ntypat   3
natom    26
typat    4*1 4*2 18*3
znucl    57 42 8
acell 3*1

rprim

             xred      8.6991001430E-01  8.7219753886E-01  8.1992490521E-01
                       3.6991001430E-01  6.2780246114E-01  1.8007509479E-01
                       1.2414531470E-01  3.3638194887E-01  6.0531323805E-01
                       6.2414531470E-01  1.6361805113E-01  3.9468676195E-01
                       1.6150139729E-01  1.1962713025E-01  1.8933508069E-01
                       6.6150139729E-01  3.8037286975E-01  8.1066491931E-01
                       8.3140417122E-01  7.0412742649E-01  2.9864158092E-01
                       3.3140417122E-01  7.9587257351E-01  7.0135841908E-01
                       3.1910743597E-01  3.0565725129E-01  3.0398236811E-01
                       8.1910743597E-01  1.9434274871E-01  6.9601763189E-01
                       6.8285952527E-01  7.8661519312E-01  9.9588447041E-02
                       1.8285952527E-01  7.1338480688E-01  9.0041155296E-01
                       9.7308048773E-01  2.0001109216E-01  3.3879029897E-01
                       4.7308048773E-01  2.9998890784E-01  6.6120970103E-01
                       4.3569487741E-02  5.7002156310E-01  3.0115452950E-01
                       5.4356948774E-01  9.2997843690E-01  6.9884547050E-01
                       3.6824236298E-01  9.6253382273E-01  2.5006855665E-01
                       1.6725326059E-01 -1.5567578509E-02  6.3294281442E-01
                       8.6824236298E-01  5.3746617727E-01  7.4993144335E-01
                       6.6725326059E-01  5.1556757851E-01  3.6705718558E-01
                       1.6247633161E-01  2.2969503096E-01  9.5921543344E-01
                       8.1242744169E-01  8.5852696738E-01  4.7459864416E-01
                       3.1242744169E-01  6.4147303262E-01  5.2540135584E-01
                       6.6247633161E-01  2.7030496904E-01  4.0784566562E-02
                       9.0227689276E-03 -8.6658417328E-02  1.4454077948E-01
                       5.0902276893E-01  5.8665841733E-01  8.5545922052E-01
 
kptopt   1
            ngfft          72      75      75
ngkpt    2 2 2
nshiftk 1
shiftk 
0.5 0.5 0.5
ecut       30
ecutsm   0.5
pawecutdg  30
pawxcdev   0
ixc      -116133
nband    104
diemac   4

# First SCF run       
#irdwfk1   1
nstep1    100
iscf1     7
tolvrs1   1.0E-20

#Refinement using tolwfr
nstep2    250
getwfk2   -1
iscf2     7
tolwfr2   1.0E-20

# Printing flags
prtden    1
prteig    0
prtwf     1
prtposcar 0
prtcif    1
