#input for non-centrosymmetric orthorhombic HfO2

ndtset    2

autoparal 1

#Crystal Def.
ntypat   3
natom    26
typat    4*1 4*2 18*3
znucl    57 42 8
acell 3*1

rprim
  1.35986254282174E+01  9.70672361406909E-01 -1.75869975266867E-03
  9.82380430722653E-01  1.36289478003747E+01  9.64821961530103E-04
 -1.84123520029338E-03  3.20374240852479E-04  1.32750817579069E+01

             xred      8.6205199605E-01  8.1425910698E-01  8.6637654758E-01
                       3.3097428332E-01  6.0363200144E-01  1.2244019822E-01
                       1.6928366262E-01  3.9623657293E-01  6.2259761882E-01
                       6.3885266126E-01  1.8580584662E-01  3.6646011787E-01
                       1.2267537939E-01  1.9013068896E-01  1.6270980785E-01
                       7.0954875037E-01  2.9899057706E-01  8.3109346909E-01
                       7.9064718543E-01  7.0119567712E-01  3.3046882420E-01
                       3.7750214246E-01  8.0976032530E-01  6.6207439960E-01
                       3.1066240688E-01  3.0071505365E-01  3.1893640863E-01
                       7.9349988324E-01  9.6970722482E-02  6.8453383780E-01
                       7.0647507893E-01  9.0297980006E-01  1.8378005381E-01
                       1.8973963511E-01  6.9815706665E-01  8.1875308078E-01
                       9.6797880477E-01  2.5791498876E-01  3.7139908974E-01
                       5.2038198376E-01  3.6632592692E-01  6.6422653821E-01
                      -2.0360619072E-02  6.3303036745E-01  1.6384444879E-01
                       5.3229197518E-01  7.4247209653E-01  8.7078701459E-01
                       2.3583623040E-01  9.5963588112E-01  1.6679948278E-01
                       2.6296318602E-01  3.9683178675E-02  6.6697594081E-01
                       8.5976615448E-01  4.7019153000E-01  8.0813751384E-01
                       6.4039454866E-01  5.2988800196E-01  3.0914332533E-01
                       1.9827669343E-01  3.3540528950E-01  9.7316203353E-01
                       9.2926484050E-01  6.9266025217E-01  5.4024179667E-01
                       3.0166690304E-01  6.6397574197E-01  4.7292848443E-01
                       5.7056824750E-01  3.0909396267E-01  4.0744833712E-02
                      -8.5949459981E-02  1.4453510424E-01  1.6230140132E-02
                       5.8500744626E-01  8.5635423882E-01  5.1515499315E-01
 
kptopt   1
            ngfft          72      75      75
ngkpt    2 2 2
nshiftk 1
shiftk 
0.5 0.5 0.5
ecut       30
ecutsm  0.5
pawecutdg  30
pawxcdev   0
ixc      -116133
nband    104
diemac   4

# First SCF run       
#irdwfk1   1
nstep1    100
iscf1     7
tolvrs1   1.0E-20

#Refinement using tolwfr
nstep2    250
getwfk2   -1
iscf2     7
tolwfr2   1.0E-20

# Printing flags
prtden    1
prteig    0
prtwf     1
prtposcar 0
prtcif    1
