#input for non-centrosymmetric orthorhombic HfO2

ndtset    1
autoparal 1

#Crystal Def.

nsym      1
ntypat   3
natom    26
typat    4*1 4*2 18*3
znucl    57 42 8

acell 3*1

rprim
  1.36109282391658E+01  5.56835804351764E-01 -5.15420166134798E-02
  5.70559360889932E-01  1.36051244888639E+01  3.74385544045662E-01
 -6.99681014826276E-02  3.70255634167793E-01  1.32708491471233E+01


xred      
  8.53769843489785E-01  8.11197829101353E-01  8.46807855780844E-01
  3.26062819287670E-01  6.17490321247568E-01  1.31896124326601E-01
  1.58125541190336E-01  3.90954843405893E-01  6.23331389615022E-01
  5.90042428459387E-01  1.63262525654123E-01  3.81289824514879E-01
  1.17591665998330E-01  1.89784473947180E-01  1.57396729344980E-01
  6.96797789677544E-01  2.96729197279346E-01  8.31503785943126E-01
  7.93414826655765E-01  6.98314402087292E-01  3.26667566229365E-01
  3.82900198730087E-01  8.08736575976754E-01  6.65610144236551E-01
  2.95630979939577E-01  3.28806264020249E-01  3.22216455358097E-01
  7.70026926142223E-01  1.07867382001097E-01  6.80797142718049E-01
  7.01448064472296E-01  9.03264490321243E-01  1.87906837127858E-01
  1.85639184944659E-01  7.28239309820364E-01  8.19221055173974E-01
  9.61015160165624E-01  2.36159543540436E-01  3.55874465500407E-01
  5.06628972674143E-01  3.78645637244411E-01  6.76387086802159E-01
 -2.41249435724249E-02  6.47333502376401E-01  1.56085515702440E-01
  5.31844546665316E-01  7.37636840134225E-01  8.81297559791111E-01
  2.61271371778789E-01  9.80061231795733E-01  1.87769264885431E-01
  3.14092146586776E-01  5.05297386718265E-02  6.33278001834965E-01
  8.56226504975665E-01  4.70045178947903E-01  8.16671398695470E-01
  6.40031068342769E-01  5.21043268809918E-01  3.08208667879413E-01
  2.02760857902695E-01  3.54860421340679E-01  9.72237039587439E-01
  9.42684053310375E-01  6.80044858609779E-01  5.33604276978949E-01
  3.03514732395738E-01  6.69253894711899E-01  4.79594011994864E-01
  5.83388399054267E-01  2.74761052688173E-01  5.09671853617489E-02
 -6.18497914011945E-02  1.23704356429787E-01 -6.92445442078322E-03
  6.11066652113108E-01  8.31272859852400E-01  5.30305069033418E-01



kptopt   1
ngkpt    2 2 2
nshiftk 1
shiftk 
0.5 0.5 0.5

ecut       30
pawecutdg  30
pawxcdev   0
ixc      -116133
nband    104
diemac   4

ecutsm  0.5
nstep    100
iscf     7
tolvrs   1.0E-20
ionmov   2
optcell  2
dilatmx  1.04
tolmxf   1e-8
ntime    150
strtarget 3*0.0 3.39893e-05  2*0.0



# Printing flags
prtden    1
prteig    0
prtwf     1
prtposcar 0
prtcif    1
