#input for KTaO3

ndtset    3

autoparal 1

#Crystal Def.
ntypat   3
natom    26
typat    4*1 4*2 18*3
znucl    57 42 8
acell 3*1


rprim
  1.33571706413807E+01  2.99819234508440E-04 -1.59756474441517E-03
  1.78393967807671E-04  1.35614630414186E+01 -6.86897561318888E-01
 -1.55008758634594E-03 -7.11699100943281E-01  1.35550540424578E+01

             xred      8.7620752890E-01  8.3524398044E-01  8.9524112712E-01
                       3.7597708398E-01  6.6499034674E-01  1.0505708990E-01
                       1.2993742871E-01  3.7232902802E-01  6.8164095915E-01
                       6.2992558919E-01  1.2836140836E-01  3.1807567729E-01
                       1.6852278113E-01  2.0529671377E-01  2.0274326930E-01
                       6.6863731915E-01  2.9532745423E-01  7.9721565627E-01
                       8.3865582155E-01  6.1952310342E-01  3.1070280211E-01
                       3.3896144062E-01  8.8028321135E-01  6.8925641489E-01
                       3.1564793954E-01  2.8657223830E-01  4.0233893732E-01
                       8.1571563884E-01  2.1442352453E-01  5.9765673664E-01
                       6.8109703132E-01  8.0593267724E-01  1.9575903554E-01
                       1.8104500337E-01  6.9418418626E-01  8.0505967395E-01
                       9.5646070206E-01  7.2556898963E-02  1.9723924317E-01
                       4.5667557411E-01  4.2791933412E-01  8.0133386815E-01
                       2.5698953972E-02  7.0021511920E-01  1.6142121390E-01
                       5.2566840561E-01  8.0007253561E-01  8.3932087958E-01
                       3.3197302270E-01  1.0165698992E+00  1.3529846808E-01
                       1.3320637064E-01  3.6968493405E-02  7.5020749306E-01
                       8.3208250801E-01  4.8355182214E-01  8.6609052089E-01
                       6.3320406401E-01  4.6256665493E-01  2.4911817234E-01
                       1.8946330594E-01  3.5914218065E-01  1.0273255719E+00
                       8.3692229366E-01  7.2934098941E-01  5.4030856993E-01
                       3.3691742650E-01  7.6848453422E-01  4.6039843257E-01
                       6.8834912793E-01  1.4062773548E-01 -2.7989642845E-02
                       9.9153720769E-01  4.1485281209E-01  3.5578258981E-01
                       4.9151043086E-01  1.0846631178E+00  6.4339724006E-01
 
nshiftk 1
shiftk 
0.5 0.5 0.5
#chksymbreak 0
kptopt   1
ngkpt    2 2 2

ecut 30
ixc      -116133
nband    104
nstep    150
diemac   4


# Data set 1 - Refinement of already computed GS WFs       
irdwfk1   0
irdden1   0
iscf1     7
tolvrs1   1.0E-20
nstep1    100

# Data Set 2: Response Function calculation : d/dk 
rfelfd2    2 
rfdir2     1    1    1 

nqpt2      1 
qpt2       0.0  0.0  0.0  

getwfk2   -1 
getden2   -1 

kptopt2    2 

iscf2     -3 

tolwfr2    1.0d-22 

# Data set 3 : Response Function calculation - electric field perturbation, phonons, and strain

rfphon3   1            # Will consider phonon-type perturbation 
rfelfd3   3            # Electric Field
rfstrs3   3            # Strains

rfdir3    1   1   1    # Along all reduced coordinate axis 
rfatpol3  1   26        # All the atoms will be displaced 

nqpt3     1            # One wavevector is to be considered 
qpt3      0.0 0.0 0.0  # This wavevector is q=0 (Gamma) 

kptopt3   2            # Automatic generation of k points, taking 
                       # into account the time-reversal symmetry only 

getwfk3   1            # Read the ground-state wavefunctions 
getddk3   2
                                              
tolvrs3   1.0d-20      # SCF stopping criterion 
                       



# Printing flags
prtden    1
prteig    0
prtwf     1
prtposcar 0
prtcif    0

ecutsm  0.5
            ngfft          72      75      75
pawecutdg  30
pawxcdev   0
