#input for non-centrosymmetric orthorhombic HfO2

ndtset    1

autoparal 1

#Crystal Def.
ntypat   3
natom    26
typat    4*1 4*2 18*3
znucl    57 42 8
acell 3*1
nsym 0

rprim
  1.33047277641895E+01  3.00263794031474E-02 -1.56970832661242E-01
  1.74597603119845E-02  1.35701463341120E+01  6.75618566829832E-01
 -1.60440447428564E-01  7.01800265620268E-01  1.35812548889474E+01
 
            xred      8.7568126038E-01  8.8079107520E-01  8.2305275410E-01
                       3.6057606772E-01  6.3715645600E-01  1.8484264979E-01
                       1.2324082125E-01  3.3690145664E-01  6.0494240975E-01
                       6.2506480221E-01  1.6748217237E-01  3.9380176581E-01
                       1.6244224907E-01  1.1917778452E-01  1.9062492950E-01
                       6.6106870099E-01  3.8146687950E-01  8.1113736057E-01
                       8.2877132230E-01  7.0545869505E-01  2.9839753215E-01
                       3.3326270983E-01  7.9618533427E-01  7.0189805016E-01
                       3.1779257334E-01  3.0958259854E-01  2.9583312988E-01
                       8.2004505876E-01  1.9756383492E-01  6.8840533590E-01
                       6.8419575398E-01  7.9212026829E-01  9.6475247460E-02
                       1.8405514213E-01  7.1705780689E-01  8.9759197136E-01
                       9.7481443324E-01  1.9645978079E-01  3.3617864256E-01
                       4.7275480324E-01  2.9931207087E-01  6.5802259606E-01
                       3.7579062007E-02  5.6443336976E-01  3.0660242948E-01
                       5.4764447119E-01  9.2426525914E-01  7.0142744438E-01
                       3.7326378955E-01  9.6553994970E-01  2.5686447937E-01
                       1.7105442402E-01 -1.3699437525E-02  6.3180144334E-01
                       8.6409186055E-01  5.3902933565E-01  7.5371286702E-01
                       6.6147494593E-01  5.2019374418E-01  3.6220390851E-01
                       1.5323421550E-01  2.1743287314E-01  9.5686102722E-01
                       8.1228809899E-01  8.5927071564E-01  4.7378076066E-01
                       3.1055345254E-01  6.4207741662E-01  5.2688827153E-01
                       6.7225676048E-01  2.6105369768E-01  3.5286145227E-02
                       1.8035035629E-02 -9.5997155571E-02  1.5192851566E-01
                       5.0475818521E-01  5.7968401773E-01  8.6143833256E-01
 
kptopt   1
ngkpt    2 2 2
nshiftk 1
shiftk 
0.5 0.5 0.5

ecut       30
pawecutdg  30
pawxcdev   0
ixc      -116133
nband    104
diemac   4

ecutsm  0.5
nstep    100
iscf     7
tolvrs   1.0E-20
ionmov   2
optcell  2
dilatmx  1.04
tolmxf   1e-11
ntime    150
strtarget 3*0.000 0.0 -1.69946e-05 0.0



# Printing flags
prtden    1
prteig    0
prtwf     1
prtposcar 0
prtcif    1
