#input for KTaO3

ndtset    3

autoparal 1

#Crystal Def.
ntypat   3
natom    26
typat    4*1 4*2 18*3
znucl    57 42 8
acell 3*1


rprim
  1.34574387856294E+01  3.47682745267736E-01  2.84289465964300E-02
  3.44563438026657E-01  1.37557920601191E+01  4.09160540094307E-01
  2.79807304392213E-02  4.11621388347708E-01  1.33726204497135E+01

             xred      8.5265488206E-01  9.1293220858E-01  8.4666202228E-01
                       3.4277981026E-01  6.7152425154E-01  1.7140953951E-01
                       1.2755934597E-01  3.3959895302E-01  5.9518567286E-01
                       6.4815957950E-01  1.6394320740E-01  3.4227545141E-01
                       1.9150518661E-01  1.4410739006E-01  1.5716257885E-01
                       6.6103175728E-01  3.5948111715E-01  7.9294745681E-01
                       7.9975184302E-01  6.8384379307E-01  3.8465774246E-01
                       3.1575982680E-01  8.0091296986E-01  7.0713130718E-01
                       3.2291634999E-01  3.3013649521E-01  2.8164309574E-01
                       8.3873687406E-01  1.9131412654E-01  6.5534331820E-01
                       7.5298095928E-01  8.1942384602E-01  1.7239304690E-01
                       1.6296679676E-01  6.5199471835E-01  8.3472270757E-01
                       9.9221372844E-01  1.9247535496E-01  3.0642682384E-01
                       4.7911985296E-01  2.8751744134E-01  6.4508594083E-01
                       4.4534959975E-02  6.2057847385E-01  3.7357081821E-01
                       4.9255169139E-01  8.7005419650E-01  8.5826995786E-01
                       3.9792762706E-01  9.8915888493E-01  2.4400462975E-01
                       1.6789902305E-01 -5.5627190366E-03  6.3424203207E-01
                       8.1845596308E-01  5.3774220638E-01  6.8464960611E-01
                       6.6480274468E-01  4.9552555050E-01  3.3133268328E-01
                       1.7282980864E-01  2.6435895045E-01  9.3348656895E-01
                       7.3544005525E-01  8.7129010575E-01  5.3314534554E-01
                       3.9818797831E-01  6.8169358890E-01  5.1130144124E-01
                       7.1689015841E-01  1.9177371077E-01 -7.3498084714E-03
                       1.0760529028E-01 -7.8657768273E-02  7.2427380769E-02
                       5.3073790684E-01  5.1283894612E-01  9.3787264026E-01
 
nshiftk 1
shiftk 
0.5 0.5 0.5
#chksymbreak 0
kptopt   1
ngkpt    2 2 2

ecut 30
ixc      -116133
nband    104
nstep    150
diemac   4


# Data set 1 - Refinement of already computed GS WFs       
irdwfk1   0
irdden1   0
iscf1     7
tolvrs1   1.0E-20
nstep1    100

# Data Set 2: Response Function calculation : d/dk 
rfelfd2    2 
rfdir2     1    1    1 

nqpt2      1 
qpt2       0.0  0.0  0.0  

getwfk2   -1 
getden2   -1 

kptopt2    2 

iscf2     -3 

tolwfr2    1.0d-22 

# Data set 3 : Response Function calculation - electric field perturbation, phonons, and strain

rfphon3   1            # Will consider phonon-type perturbation 
rfelfd3   3            # Electric Field
rfstrs3   3            # Strains

rfdir3    1   1   1    # Along all reduced coordinate axis 
rfatpol3  1   26        # All the atoms will be displaced 

nqpt3     1            # One wavevector is to be considered 
qpt3      0.0 0.0 0.0  # This wavevector is q=0 (Gamma) 

kptopt3   2            # Automatic generation of k points, taking 
                       # into account the time-reversal symmetry only 

getwfk3   1            # Read the ground-state wavefunctions 
getddk3   2
                                              
tolvrs3   1.0d-20      # SCF stopping criterion 
                       



# Printing flags
prtden    1
prteig    0
prtwf     1
prtposcar 0
prtcif    0

ecutsm  0.5
            ngfft          72      75      75
pawecutdg  30
pawxcdev   0
