#input for non-centrosymmetric orthorhombic HfO2

ndtset    1

autoparal 1

#Crystal Def.
ntypat   3
natom    26
typat    4*1 4*2 18*3
znucl    57 42 8
acell 3*1
nsym 0

rprim
  1.33046138950671E+01 -2.23806096020560E-02  1.66921497571648E-01
 -1.92346719482318E-02  1.35774369336987E+01  6.66829370604863E-01
  1.66869002517125E-01  6.93353749029913E-01  1.35767960644844E+01


             xred      8.6082657426E-01  8.6258735607E-01  8.1492776691E-01
                       3.7644635290E-01  6.1620256097E-01  1.7565228267E-01
                       1.2585490934E-01  3.3233864704E-01  6.0685550723E-01
                       6.2349233290E-01  1.6259889204E-01  3.9513327580E-01
                       1.6027247435E-01  1.1831037796E-01  1.8891763848E-01
                       6.6276403747E-01  3.8072170938E-01  8.0951631206E-01
                       8.3288982617E-01  7.0306822141E-01  2.9808055360E-01
                       3.2904880690E-01  7.9446289650E-01  7.0119619820E-01
                       3.2030224531E-01  3.0151098975E-01  3.1303284459E-01
                       8.1830698379E-01  1.9030381299E-01  7.0595023502E-01
                       6.8384644292E-01  7.8023033275E-01  1.0205680087E-01
                       1.8433091646E-01  7.0898079594E-01  9.0367310933E-01
                       9.7280684712E-01  2.0175949609E-01  3.4317471696E-01
                       4.7530998649E-01  3.0246347705E-01  6.6448728431E-01
                       4.8256979631E-02  5.7719693663E-01  2.9665009541E-01
                       5.3789225406E-01  9.3548360770E-01  6.9251053922E-01
                       3.6278387601E-01  9.6044807580E-01  2.4483180720E-01
                       1.6174604050E-01 -2.0147948197E-02  6.3782487675E-01
                       8.7333760895E-01  5.3462003477E-01  7.4328552159E-01
                       6.7175750432E-01  5.1302204281E-01  3.6991787427E-01
                       1.7287836748E-01  2.4074548104E-01  9.6572442752E-01
                       8.1094548511E-01  8.5821121495E-01  4.7255626826E-01
                       3.1207524233E-01  6.4080012079E-01  5.2558923132E-01
                       6.5212866638E-01  2.8539509990E-01  4.4319371175E-02
                       2.2590259814E-03 -7.7293054333E-02  1.3741322958E-01
                       5.1744021289E-01  5.9597882221E-01  8.4672223167E-01
 
kptopt   1
ngkpt    2 2 2
nshiftk 1
shiftk 
0.5 0.5 0.5

ecut       30
pawecutdg  30
pawxcdev   0
ixc      -116133
nband    104
diemac   4

ecutsm  0.5
nstep    100
iscf     7
tolvrs   1.0E-20
ionmov   2
optcell  2
dilatmx  1.04
tolmxf   1e-11
ntime    150
strtarget 3*0.000 0.0 1.69946e-05 0.0



# Printing flags
prtden    1
prteig    0
prtwf     1
prtposcar 0
prtcif    1
