#input for KTaO3

ndtset    3

autoparal 1

#Crystal Def.
ntypat   3
natom    26
typat    4*1 4*2 18*3
znucl    57 42 8
acell 3*1


rprim
  1.35610069512195E+01 -6.95041114561012E-01  3.52088355724118E-03
 -7.19372020316119E-01  1.35616621802859E+01  6.66095136203901E-03
  2.63637287686701E-03  6.85525655390967E-03  1.33555633897592E+01

             xred      8.3476892945E-01  8.9516589056E-01  8.7611846863E-01
                       3.7111907766E-01  6.8221870909E-01  1.3065086288E-01
                       1.2824009240E-01  3.1821934538E-01  6.2954785950E-01
                       6.6513531090E-01  1.0487899890E-01  3.7603935362E-01
                       2.0568175483E-01  2.0288589947E-01  1.6831411243E-01
                       6.2018039614E-01  3.1089234005E-01  8.3859632554E-01
                       8.7984076285E-01  6.8916367292E-01  3.3890627370E-01
                       2.9439976535E-01  7.9704875437E-01  6.6910181231E-01
                       2.8639416274E-01  4.0235874752E-01  3.1558030699E-01
                       8.0614554930E-01  1.9502143602E-01  6.8086551685E-01
                       6.9354528754E-01  8.0437154164E-01  1.8108551045E-01
                       2.1306836896E-01  5.9734425261E-01  8.1615566311E-01
                       1.0166896710E+00  1.3502863713E-01  3.3153159650E-01
                       4.6313773494E-01  2.4973758951E-01  6.3328449810E-01
                       3.6680794494E-02  7.5114466374E-01  1.3322789066E-01
                       4.8250404369E-01  8.6554906312E-01  8.3286463617E-01
                       3.5959012153E-01  1.0278192563E+00  1.8976741814E-01
                       1.4024002968E-01 -2.7943334557E-02  6.8828715138E-01
                       7.3161414153E-01  5.3982299563E-01  8.3575176377E-01
                       7.6904683981E-01  4.5994170713E-01  3.3679443772E-01
                       7.3409259709E-02  1.9742565788E-01  9.5604937445E-01
                       7.9968913770E-01  8.3872123754E-01  5.2573567854E-01
                       4.2769323854E-01  8.0175694859E-01  4.5745960433E-01
                       7.0052514863E-01  1.6118603788E-01  2.5575213642E-02
                       4.1597332209E-01  3.5662979694E-01  9.9162345016E-01
                       1.0846870584E+00  6.4361015463E-01  4.9108522038E-01
 
nshiftk 1
shiftk 
0.5 0.5 0.5
#chksymbreak 0
kptopt   1
ngkpt    2 2 2

ecut 30
ixc      -116133
nband    104
nstep    150
diemac   4


# Data set 1 - Refinement of already computed GS WFs       
irdwfk1   0
irdden1   0
iscf1     7
tolvrs1   1.0E-20
nstep1    100

# Data Set 2: Response Function calculation : d/dk 
rfelfd2    2 
rfdir2     1    1    1 

nqpt2      1 
qpt2       0.0  0.0  0.0  

getwfk2   -1 
getden2   -1 

kptopt2    2 

iscf2     -3 

tolwfr2    1.0d-22 

# Data set 3 : Response Function calculation - electric field perturbation, phonons, and strain

rfphon3   1            # Will consider phonon-type perturbation 
rfelfd3   3            # Electric Field
rfstrs3   3            # Strains

rfdir3    1   1   1    # Along all reduced coordinate axis 
rfatpol3  1   26        # All the atoms will be displaced 

nqpt3     1            # One wavevector is to be considered 
qpt3      0.0 0.0 0.0  # This wavevector is q=0 (Gamma) 

kptopt3   2            # Automatic generation of k points, taking 
                       # into account the time-reversal symmetry only 

getwfk3   1            # Read the ground-state wavefunctions 
getddk3   2
                                              
tolvrs3   1.0d-20      # SCF stopping criterion 
                       



# Printing flags
prtden    1
prteig    0
prtwf     1
prtposcar 0
prtcif    0

ecutsm  0.5
            ngfft          72      75      75
pawecutdg  30
pawxcdev   0
