#input for non-centrosymmetric orthorhombic HfO2

ndtset    1
autoparal 1

#Crystal Def.

nsym     1
ntypat   3
natom    26
typat    4*1 4*2 18*3
znucl    57 42 8

acell 3*1

rprim
  1.33183004818189E+01  1.68603395298307E-05  7.88528949937823E-03
  4.59629653795699E-04  1.35614219858763E+01  5.64193657096370E-01
  8.03468786499750E-03  5.91058187975566E-01  1.35576025977802E+01

             xred     
  8.69748236795620E-01  8.73956319190505E-01  8.20031257548655E-01
  3.70531261485267E-01  6.23784654676926E-01  1.78858311662828E-01
  1.25092093985420E-01  3.36427735443845E-01  6.06277438740077E-01
  6.24639770935291E-01  1.63180072861516E-01  3.94295987248542E-01
  1.60986637079628E-01  1.18794239886845E-01  1.89404459020299E-01
  6.61560832102302E-01  3.81223791866510E-01  8.10745496305625E-01
  8.31214609658389E-01  7.02819498226694E-01  2.97462431607103E-01
  3.31249661576363E-01  7.96415123093269E-01  7.02291110366678E-01
  3.19427208393581E-01  3.04467286746425E-01  3.06500658901601E-01
  8.19457562299562E-01  1.94877437865181E-01  6.96263168626713E-01
  6.83657357227082E-01  7.82706132721613E-01  9.93912444073550E-02
  1.83619870719310E-01  7.15176827557472E-01  9.00403483868013E-01
  9.74013683756837E-01  2.01012205777837E-01  3.41088431250764E-01
  4.74235237920553E-01  2.99238690878256E-01  6.60127109228415E-01
  4.44371695947515E-02  5.71958511248520E-01  2.98093953658727E-01
  5.43981238770726E-01  9.28560818926525E-01  7.00013040097079E-01
  3.66623631742664E-01  9.61677259995096E-01  2.47479538755120E-01
  1.67884828681072E-01 -1.58513153417941E-02  6.35287014401038E-01
  8.67256558593192E-01  5.38379435761089E-01  7.51200029395847E-01
  6.68448526341470E-01  5.15235233469160E-01  3.66152815589361E-01
  1.62227277414382E-01  2.29380994851833E-01  9.61828050816546E-01
  8.12595232705294E-01  8.58812574983045E-01  4.73906599969827E-01
  3.12109807378526E-01  6.41597615179174E-01  5.25003782696690E-01
  6.60725664610579E-01  2.74383895707578E-01  3.99301336624936E-02
  6.60280978356746E-03 -8.48314972916968E-02  1.43896750211725E-01
  5.07673230479038E-01  5.86616455721093E-01  8.54067701971709E-01

kptopt 1
ngkpt    2 2 2
nshiftk 1
shiftk 
0.5 0.5 0.5

ecut       30
pawecutdg  30
pawxcdev   0
ixc      -116133
nband    104
diemac   4

ecutsm  0.5
nstep    100
iscf     7
tolvrs   1.0E-20
ionmov   2
optcell  2
dilatmx  1.04
tolmxf   1e-8
ntime    150
strtarget 3*0.0 -1.69946e-05 2*0.0 



# Printing flags
prtden    1
prteig    0
prtwf     1
prtposcar 0
prtcif    1
