#input for non-centrosymmetric orthorhombic HfO2

ndtset    1
autoparal 1

#Crystal Def.

nsym      1
ntypat   3
natom    26
typat    4*1 4*2 18*3
znucl    57 42 8

acell 3*1

rprim
  1.38083270935347E+01 -7.18881570585449E-01  1.25073639902811E-01
 -7.38581450840174E-01  1.35764631111571E+01 -5.63446370677158E-02
  1.66975383489010E-01 -6.54295581277442E-02  1.34495435510986E+01


xred  
  8.61474503886422E-01  8.51229794277325E-01  8.59141430444470E-01
  3.12151970114164E-01  6.49674826711870E-01  1.80358761496561E-01
  1.58990847987463E-01  3.56446712260433E-01  6.36920387384277E-01
  6.90284923693409E-01  9.66149861678661E-02  3.24969425823815E-01
  1.54553963682218E-01  1.86885373018629E-01  1.80653480799043E-01
  6.44976125860719E-01  3.06010045026992E-01  8.12803959928083E-01
  8.53843699012614E-01  6.63545113615315E-01  3.25752524120434E-01
  3.58460030509591E-01  8.93042014252791E-01  7.07419096357300E-01
  2.76627532524405E-01  6.69778845637745E-01  7.96292235991080E-01
  3.12469315007490E-01  3.52956630058800E-01  3.29628989237427E-01
  6.70755257001810E-01  7.72001377088256E-01  1.77033439523832E-01
  8.46878845046893E-01  2.07854136263487E-01  7.35305478683269E-01
 -3.58104480398332E-03  6.81149166950610E-01  1.00656527002030E-01
  2.82738023153754E-01  9.92840332459515E-01  1.51867819928570E-01
  8.16998394000141E-01  8.40139803630722E-01  5.04562414955722E-01
  6.92189731868926E-01  5.48808674533848E-01  7.91400793761639E-01
  5.56943970755544E-01  9.54027927392699E-01  8.44581315751060E-01
  1.00313191938880E+00  1.88928698686435E-01  3.98345882801977E-01
  7.32526960562089E-01  4.46894634392268E-01  3.77352410774740E-01
  1.93044131054753E-01  3.56954425670664E-01  9.92684650485564E-01
  4.62134475425351E-01  2.30834178460318E-01  6.51600051748263E-01
  1.58681532511968E-01  1.47451091886536E-02  7.38005897209420E-01
  1.08106268663132E+00  6.18462968298037E-01  4.35100373172579E-01
  5.94604052952248E-01  2.71211335475107E-01  5.16817698171604E-02
  4.25909076689682E-01  8.66632743453364E-01  4.69952779763728E-01
 -7.29759245187058E-02  8.51770470290282E-02  1.08430010303703E+00







kptopt   1
ngfft          72      75      75

ngkpt    2 2 2
nshiftk 1
shiftk 
0.5 0.5 0.5

ecut       30
pawecutdg  30
pawxcdev   0
ixc      -116133
nband    104
diemac   4

ecutsm  0.5
nstep    100
iscf     7
tolvrs   1.0E-20
ionmov   2
optcell  2
dilatmx  1.04
tolmxf   1e-8
ntime    150
strtarget 1.69946e-05 5*0.0 



# Printing flags
prtden    1
prteig    0
prtwf     1
prtposcar 0
prtcif    1
