#input for non-centrosymmetric orthorhombic HfO2

ndtset    2

autoparal 1

#Crystal Def.
ntypat   3
natom    26
typat    4*1 4*2 18*3
znucl    57 42 8
acell 3*1

rprim
  1.38082991788724E+01 -7.18899279363238E-01  1.25050696841803E-01
 -7.38597073142758E-01  1.35764675989176E+01 -5.63411876268346E-02
  1.66952791176074E-01 -6.54275393863745E-02  1.34495542424052E+01

             xred      8.6147422755E-01  8.5123162879E-01  8.5913879686E-01
                       3.1215296898E-01  6.4967486897E-01  1.8036078229E-01
                       1.5898844197E-01  3.5644791803E-01  6.3692145115E-01
                       6.9028355622E-01  9.6612386916E-02  3.2496549418E-01
                       1.5455629014E-01  1.8688470622E-01  1.8065507035E-01
                       6.4497643468E-01  3.0601113131E-01  8.1280329445E-01
                       8.5384185438E-01  6.6354308272E-01  3.2574992911E-01
                       3.5845994431E-01  8.9304420425E-01  7.0742166092E-01
                       2.7663104379E-01  6.6977974868E-01  7.9629408238E-01
                       3.1247176262E-01  3.5295441183E-01  3.2963161840E-01
                       6.7075098546E-01  7.7199674651E-01  1.7703196481E-01
                       8.4687842342E-01  2.0785387401E-01  7.3530388550E-01
                      -3.5824570732E-03  6.8114923761E-01  1.0065579579E-01
                       2.8274277998E-01  9.9284114555E-01  1.5186621990E-01
                       8.1699885818E-01  8.4013918844E-01  5.0455842893E-01
                       6.9219250706E-01  5.4880920658E-01  7.9139782460E-01
                       5.5694551619E-01  9.5403219508E-01  8.4458246103E-01
                       1.0031323365E+00  1.8892689958E-01  3.9834535383E-01
                       7.3252593802E-01  4.4689245673E-01  3.7735234566E-01
                       1.9304396647E-01  3.5695595809E-01  9.9268829858E-01
                       4.6213044480E-01  2.3083624916E-01  6.5160389893E-01
                       1.5868004800E-01  1.4745259382E-02  7.3800788004E-01
                       1.0810611496E+00  6.1846026872E-01  4.3509877466E-01
                       5.9460528343E-01  2.7121470464E-01  5.1681222569E-02
                       4.2590758220E-01  8.6663480687E-01  4.6995538784E-01
                      -7.2974886847E-02  8.5174615345E-02  1.0843000772E+00
 
kptopt   1
            ngfft          72      75      75
ngkpt    2 2 2
nshiftk 1
shiftk 
0.5 0.5 0.5
ecut       30
ecutsm  0.5
pawecutdg  30
pawxcdev   0
ixc      -116133
nband    104
diemac   4

# First SCF run       
#irdwfk1   1
nstep1    100
iscf1     7
tolvrs1   1.0E-20

#Refinement using tolwfr
nstep2    250
getwfk2   -1
iscf2     7
tolwfr2   1.0E-20

# Printing flags
prtden    1
prteig    0
prtwf     1
prtposcar 0
prtcif    1
