#input for non-centrosymmetric orthorhombic HfO2

ndtset    1
autoparal 1

#Crystal Def.

nsym      1
ntypat   3
natom    26
typat    4*1 4*2 18*3
znucl    57 42 8

acell 3*1

rprim
  1.36068481004414E+01  9.66474025223825E-03 -6.90457921381918E-01
  9.56869098287399E-03  1.33353466527756E+01  1.67141029468774E-03
 -6.95198832527674E-01  1.20952434781220E-03  1.34714017948319E+01

xred      
  8.94781869949718E-01  8.76280398786868E-01  8.35534256120193E-01
  3.19555452255869E-01  6.30028503969312E-01  1.28352528991086E-01
  1.05198167059899E-01  3.76207636077214E-01  6.64106519752033E-01
  6.81094689197585E-01  1.31746172798327E-01  3.69730677134041E-01
  2.02808568415324E-01  1.68130967108324E-01  2.05349371407430E-01
  6.89668203433339E-01  3.38849927326553E-01  8.79153155918881E-01
  7.97192160860424E-01  6.68809493162301E-01  2.94923145257389E-01
  3.10518041880337E-01  8.38794376231005E-01  6.20612572553564E-01
  4.00507049110141E-01  3.16414964642472E-01  2.88156656395318E-01
  8.04748832050670E-01  1.81139485201804E-01  6.93062659945694E-01
  5.98937088100865E-01  8.16306648474843E-01  2.10947324538958E-01
  1.93933760265279E-01  6.80893904280493E-01  8.06103415860706E-01
  1.02680590729770E+00  1.88268417998059E-01  3.58760663341133E-01
  4.61272641247804E-01  3.38013600697789E-01  7.67884916575333E-01
 -2.70789904200267E-02  6.87626074042262E-01  1.41102730095790E-01
  5.38183775878793E-01  8.35393521198496E-01  7.33374930428543E-01
  1.97533032700324E-01  9.55814304671338E-01  7.19811257424265E-02
  1.61133568133050E-01  2.63706616058215E-02  7.00407442104137E-01
  8.38926287277990E-01  5.26268436725713E-01  8.00445752910736E-01
  8.02849951839137E-01  4.57323223224863E-01  4.29892962329143E-01
  1.35634881300442E-01  3.31899743616386E-01  1.01551789516461E+00
  8.64071691617544E-01  8.33540301151778E-01  4.83889685527160E-01
  2.49593184351833E-01  6.33294064089977E-01  4.62292159500626E-01
  7.50897146632091E-01  1.32147185895822E-01  3.65976618332417E-02
  6.43945792128171E-01  4.89297601041672E-01  1.08712705666225E+00
  3.57287247449715E-01  9.91140385927654E-01  4.14692733915707E-01



kptopt   1
            ngfft          72      75      75

ngkpt    2 2 2
nshiftk 1
shiftk 
0.5 0.5 0.5

ecut       30
pawecutdg  30
pawxcdev   0
ixc      -116133
nband    104
diemac   4

ecutsm  0.5
nstep    100
iscf     7
tolvrs   1.0E-20
ionmov   2
optcell  2
dilatmx  1.04
tolmxf   1e-8
ntime    150
strtarget 2*0.0 -3.39893e-05 3*0.0 



# Printing flags
prtden    1
prteig    0
prtwf     1
prtposcar 0
prtcif    1
