#input for non-centrosymmetric orthorhombic HfO2

ndtset    2

autoparal 1

#Crystal Def.
ntypat   3
natom    26
typat    4*1 4*2 18*3
znucl    57 42 8
acell 3*1

rprim
  1.36068481489056E+01  9.66454775964345E-03 -6.90458491305295E-01
  9.56848686212977E-03  1.33353472541152E+01  1.67111457231761E-03
 -6.95199399486895E-01  1.20923671193478E-03  1.34714017865532E+01

             xred      8.9478187518E-01  8.7628043857E-01  8.3553425711E-01
                       3.1955534131E-01  6.3002844229E-01  1.2835250648E-01
                       1.0519816177E-01  3.7620760439E-01  6.6410656614E-01
                       6.8109468796E-01  1.3174624908E-01  3.6973065339E-01
                       2.0280862215E-01  1.6813094834E-01  2.0534947502E-01
                       6.8966820610E-01  3.3884995812E-01  8.7915310847E-01
                       7.9719207997E-01  6.6880952374E-01  2.9492309795E-01
                       3.1051808051E-01  8.3879438475E-01  6.2061260584E-01
                       4.0050705067E-01  3.1641503903E-01  2.8815673964E-01
                       8.0474886205E-01  1.8113947048E-01  6.9306261671E-01
                       5.9893700850E-01  8.1630664522E-01  2.1094728019E-01
                       1.9393387209E-01  6.8089381863E-01  8.0610348481E-01
                       1.0268059814E+00  1.8826835759E-01  3.5876078071E-01
                       4.6127272262E-01  3.3801357901E-01  7.6788466422E-01
                      -2.7079130629E-02  6.8762612601E-01  1.4110261692E-01
                       5.3818383964E-01  8.3539339787E-01  7.3337492406E-01
                       1.9753312091E-01  9.5581426876E-01  7.1981273578E-02
                       1.6113358300E-01  2.6370621053E-02  7.0040750105E-01
                       8.3892634231E-01  5.2626842219E-01  8.0044577329E-01
                       8.0284990879E-01  4.5732324858E-01  4.2989291135E-01
                       1.3563487197E-01  3.3189962931E-01  1.0155179356E+00
                       8.6407169128E-01  8.3354028623E-01  4.8388963835E-01
                       2.4959303294E-01  6.3329421821E-01  4.6229211951E-01
                       7.5089716454E-01  1.3214723122E-01  3.6597618744E-02
                       6.4394563203E-01  4.8929760354E-01  1.0871269613E+00
                       3.5728739098E-01  9.9114048774E-01  4.1469288958E-01
 
kptopt   1
            ngfft          72      75      75
ngkpt    2 2 2
nshiftk 1
shiftk 
0.5 0.5 0.5
ecut       30
ecutsm  0.5
pawecutdg  30
pawxcdev   0
ixc      -116133
nband    104
diemac   4

# First SCF run       
#irdwfk1   1
nstep1    100
iscf1     7
tolvrs1   1.0E-20

#Refinement using tolwfr
nstep2    250
getwfk2   -1
iscf2     7
tolwfr2   1.0E-20

# Printing flags
prtden    1
prteig    0
prtwf     1
prtposcar 0
prtcif    1
