#input for KTaO3

ndtset    3

autoparal 1

#Crystal Def.
ntypat   3
natom    26
typat    4*1 4*2 18*3
znucl    57 42 8
acell 3*1


rprim
  1.35403577046617E+01  1.52768290533316E-01  3.14342404308022E-02
  1.53254687557606E-01  1.36033954527017E+01  3.33131279859669E-01
  2.76974858743986E-02  3.32161205915865E-01  1.33901325377316E+01

             xred      8.5037271323E-01  9.1390878700E-01  8.4474712730E-01
                       3.4179360680E-01  6.6882191601E-01  1.6840807614E-01
                       1.3063296239E-01  3.4307465406E-01  5.9742173288E-01
                       6.4805252254E-01  1.6292096032E-01  3.4128286493E-01
                       1.9008188104E-01  1.4126411653E-01  1.5790327405E-01
                       6.6412568318E-01  3.6176316182E-01  7.9453656407E-01
                       8.0232881918E-01  6.8622097623E-01  3.8162448318E-01
                       3.1218573614E-01  8.0298818376E-01  7.0590223233E-01
                       3.2180837782E-01  3.3051826428E-01  2.8531841750E-01
                       8.3909474380E-01  1.9531953518E-01  6.5526204001E-01
                       7.5410499823E-01  8.2052112190E-01  1.7055935080E-01
                       1.6884950415E-01  6.4109841299E-01  8.3210402460E-01
                       9.9190872033E-01  1.8383431938E-01  3.0675408296E-01
                       4.8093510179E-01  2.8745145511E-01  6.4720101531E-01
                       4.3501353754E-02  6.2061191146E-01  3.7108942344E-01
                       4.9091950520E-01  8.7432637974E-01  8.5524925568E-01
                       3.9501500729E-01  9.8848195768E-01  2.4405714581E-01
                       1.6156005264E-01 -6.4234533086E-03  6.3829942763E-01
                       8.2079223017E-01  5.4516965739E-01  6.8732040131E-01
                       6.6180530513E-01  4.9557495442E-01  3.3514007217E-01
                       1.7120491405E-01  2.6402597046E-01  9.3689511146E-01
                       7.3520921698E-01  8.7286037580E-01  5.3092503245E-01
                       3.9267722067E-01  6.8401145899E-01  5.0936099829E-01
                       7.1866464788E-01  1.9287769033E-01 -7.4805319082E-03
                       1.0956457782E-01 -8.5411439950E-02  6.6945323816E-02
                       5.3881059774E-01  5.1418867237E-01  9.4317305378E-01
 
nshiftk 1
shiftk 
0.5 0.5 0.5
#chksymbreak 0
kptopt   1
ngkpt    2 2 2

ecut 30
ixc      -116133
nband    104
nstep    150
diemac   4


# Data set 1 - Refinement of already computed GS WFs       
irdwfk1   0
irdden1   0
iscf1     7
tolvrs1   1.0E-20
nstep1    100

# Data Set 2: Response Function calculation : d/dk 
rfelfd2    2 
rfdir2     1    1    1 

nqpt2      1 
qpt2       0.0  0.0  0.0  

getwfk2   -1 
getden2   -1 

kptopt2    2 

iscf2     -3 

tolwfr2    1.0d-22 

# Data set 3 : Response Function calculation - electric field perturbation, phonons, and strain

rfphon3   1            # Will consider phonon-type perturbation 
rfelfd3   3            # Electric Field
rfstrs3   3            # Strains

rfdir3    1   1   1    # Along all reduced coordinate axis 
rfatpol3  1   26        # All the atoms will be displaced 

nqpt3     1            # One wavevector is to be considered 
qpt3      0.0 0.0 0.0  # This wavevector is q=0 (Gamma) 

kptopt3   2            # Automatic generation of k points, taking 
                       # into account the time-reversal symmetry only 

getwfk3   1            # Read the ground-state wavefunctions 
getddk3   2
                                              
tolvrs3   1.0d-20      # SCF stopping criterion 
                       



# Printing flags
prtden    1
prteig    0
prtwf     1
prtposcar 0
prtcif    0

ecutsm  0.5
            ngfft          72      75      75
pawecutdg  30
pawxcdev   0
