#input for non-centrosymmetric orthorhombic HfO2

ndtset    1
autoparal 1

#Crystal Def.

nsym      1
ntypat   3
natom    26
typat    4*1 4*2 18*3
znucl    57 42 8

acell 3*1

rprim
  1.37007969658296E+01  4.76205775995263E-03  7.15701183830539E-01
  4.91829608260690E-03  1.32793753913578E+01 -2.62494754063570E-03
  7.17464114097847E-01 -2.99937721258034E-03  1.35382147979035E+01

xred     
  8.18186052679914E-01  8.67590203197885E-01  8.69206138371306E-01
  3.95735913121916E-01  6.23648838159241E-01  1.65619144333141E-01
  1.81672792582388E-01  3.68326277423250E-01  6.30165397749833E-01
  6.04203149593959E-01  1.23739761963612E-01  3.34102988948418E-01
  1.89420779200660E-01  1.61517491403389E-01  1.20668468485221E-01
  7.03373464555362E-01  3.30877926200682E-01  7.93805494112871E-01
  8.10343914833105E-01  6.61613280516583E-01  3.79473185706403E-01
  2.96810484276918E-01  8.31325779238855E-01  7.06063237202742E-01
  3.04697055660248E-01  3.19460367547978E-01  3.07108365557189E-01
  9.01977731413821E-01  1.83941507033765E-01  7.12183275230566E-01
  6.95709459998449E-01  8.19396401307959E-01  1.92752414717160E-01
  9.86842560800278E-02  6.83994170861409E-01  7.87669230401096E-01
  9.62857240646114E-01  1.64447471463963E-01  2.32205733968804E-01
  5.28583738129695E-01  3.11020455091520E-01  6.41532696712202E-01
  3.71601806259615E-02  6.63654550117223E-01  2.68585140514604E-01
  4.71496455837183E-01  8.10789844656105E-01  8.58459764170925E-01
  3.38590076760116E-01  9.73454885867737E-01  1.99384123222579E-01
  3.03466688643973E-01  4.35693073266773E-02  5.71402840024181E-01
  6.96312536825352E-01  5.43003772278607E-01  9.28810420524092E-01
  6.61514342762320E-01  4.73524140664651E-01  3.00700601571361E-01
  2.51741195400778E-01  3.68465770315227E-01  9.64127943466918E-01
  7.47757421882586E-01  8.68882134320002E-01  5.36054513459193E-01
  3.63286307342691E-01  6.66470359527365E-01  5.16950219090472E-01
  6.36852311841706E-01  1.65739227563508E-01 -1.75898437709497E-02
  1.43718154839514E-01  1.04867921413624E-02 -8.58643876512224E-02
  8.55848294477903E-01  5.11059283837519E-01  5.86422893881745E-01

kptopt   1
ngkpt    2 2 2
nshiftk 1
shiftk 
0.5 0.5 0.5

ecut       30
pawecutdg  30
pawxcdev   0
ixc      -116133
nband    104
diemac   4

ecutsm  0.5
nstep    100
iscf     7
tolvrs   1.0E-20
ionmov   2
optcell  2
dilatmx  1.04
tolmxf   1e-8
ntime    150
strtarget 1*3.39893e-05 2*0.0 3*0.0



# Printing flags
prtden    1
prteig    0
prtwf     1
prtposcar 0
prtcif    1
