#input for KTaO3

ndtset    3

autoparal 1

#Crystal Def.
ntypat   3
natom    26
typat    4*1 4*2 18*3
znucl    57 42 8

ngfft 72 72 72

acell 3*1.001 Angstrom

rprim
7.1547  0.0000  0.0000
0.0000  7.1547  0.0000
0.0000  0.0000  7.1547



             xred      8.6953126939E-01  8.8789569443E-01  8.2470218421E-01
                       3.6953126939E-01  6.1210430557E-01  1.7529781579E-01
                       1.3909499320E-01  3.3576450064E-01  6.2310175151E-01
                       6.3909499320E-01  1.6423549936E-01  3.7689824849E-01
                       1.6219092532E-01  1.2182999099E-01  1.8988808695E-01
                       6.6219092532E-01  3.7817000901E-01  8.1011191305E-01
                       8.2799510954E-01  7.0196945210E-01  2.8900336669E-01
                       3.2799510954E-01  7.9803054790E-01  7.1099663331E-01
                       3.2466532770E-01  3.0430345376E-01  3.0995969177E-01
                       8.2466532770E-01  1.9569654624E-01  6.9004030823E-01
                       6.7908557346E-01  7.7978718565E-01  1.0057926431E-01
                       1.7908557346E-01  7.2021281435E-01  8.9942073569E-01
                       9.8486046668E-01  2.1591284111E-01  3.5391642176E-01
                       4.8486046668E-01  2.8408715889E-01  6.4608357824E-01
                       4.3577505592E-02  5.8546768699E-01  2.6671390467E-01
                       5.4357750559E-01  9.1453231301E-01  7.3328609533E-01
                       3.5461046944E-01  9.5621706335E-01  2.3735666574E-01
                       1.7457372826E-01 -1.4934707532E-02  6.4315619938E-01
                       8.5461046944E-01  5.4378293665E-01  7.6264333426E-01
                       6.7457372826E-01  5.1493470753E-01  3.5684380062E-01
                       1.6222041761E-01  2.2615189296E-01  9.6571224946E-01
                       8.1151194539E-01  8.6330664427E-01  4.7631765913E-01
                       3.1151194539E-01  6.3669335573E-01  5.2368234087E-01
                       6.6222041761E-01  2.7384810704E-01  3.4287750544E-02
                      -8.9257315789E-03 -6.8953506810E-02  1.4378125931E-01
                       4.9107426842E-01  5.6895350681E-01  8.5621874069E-01
 
#chksymbreak 0
kptopt   1
ngkpt    2 2 2
nshiftk 1
shiftk
0.5 0.5 0.5

ecutsm 0.5
ecut 30
ixc      -116133
nband    104
nstep    150
diemac   4


# Data set 1 - Refinement of already computed GS WFs       
irdwfk1   0
irdden1   0
iscf1     7
tolwfr1   1.0E-20
nstep1    100

# Data Set 2: Response Function calculation : d/dk 
rfelfd2    2 
rfdir2     1    1    1 

nqpt2      1 
qpt2       0.0  0.0  0.0  

getwfk2   -1 
getden2   -1 

kptopt2    2 

iscf2     -3 

tolwfr2    1.0d-22 

# Data set 3 : Response Function calculation - electric field perturbation, phonons, and strain

rfphon3   1            # Will consider phonon-type perturbation 
rfelfd3   3            # Electric Field
rfstrs3   3            # Strains

rfdir3    1   1   1    # Along all reduced coordinate axis 
rfatpol3  1   26        # All the atoms will be displaced 

nqpt3     1            # One wavevector is to be considered 
qpt3      0.0 0.0 0.0  # This wavevector is q=0 (Gamma) 

kptopt3   2            # Automatic generation of k points, taking 
                       # into account the time-reversal symmetry only 

getwfk3   1            # Read the ground-state wavefunctions 
getddk3   2
                                              
tolvrs3   1.0d-20      # SCF stopping criterion 
                       



# Printing flags
prtden    1
prteig    0
prtwf     1
prtposcar 0
prtcif    0

pawecutdg  30
pawxcdev   0
