#input for KTaO3

ndtset    3

autoparal 1

#Crystal Def.
ntypat   3
natom    26
typat    4*1 4*2 18*3
znucl    57 42 8
acell 3*1


rprim
  1.35566695319936E+01 -7.07722859254873E-01  3.93994642898508E-03
 -7.27731471295120E-01  1.36411376773252E+01  5.56673312234254E-03
  3.00686261018397E-03  5.86801452491637E-03  1.32947980353958E+01

             xred      8.3428131271E-01  8.9550893884E-01  8.7613274519E-01
                       3.6992628433E-01  6.8215462945E-01  1.3166237430E-01
                       1.2968004069E-01  3.1823110641E-01  6.3087068566E-01
                       6.6566995514E-01  1.0457275061E-01  3.7608752151E-01
                       2.0626192806E-01  2.0315199205E-01  1.6856780065E-01
                       6.2075387470E-01  3.1081434732E-01  8.3826418384E-01
                       8.7927468941E-01  6.8918785658E-01  3.3857841168E-01
                       2.9381494528E-01  7.9682488626E-01  6.6911477463E-01
                       2.8694646415E-01  4.0224049753E-01  3.1589122948E-01
                       8.0687815334E-01  1.9534487230E-01  6.8059380579E-01
                       6.9290612827E-01  8.0414648305E-01  1.8070321955E-01
                       2.1273461621E-01  5.9760761460E-01  8.1640676493E-01
                       1.0172361202E+00  1.3624987007E-01  3.3294671994E-01
                       4.6401208885E-01  2.4883543315E-01  6.3185468579E-01
                       3.5892440954E-02  7.5177775968E-01  1.3186278162E-01
                       4.8210193887E-01  8.6448992702E-01  8.3381572066E-01
                       3.5900106433E-01  1.0283075091E+00  1.8996393392E-01
                       1.4083629385E-01 -2.8386752679E-02  6.8850578550E-01
                       7.3193492375E-01  5.3854396133E-01  8.3544073340E-01
                       7.6849509428E-01  4.6127738508E-01  3.3634436889E-01
                       7.2419228142E-02  1.9644173182E-01  9.5623678123E-01
                       8.0002492918E-01  8.3852146857E-01  5.2624439524E-01
                       4.2844034659E-01  8.0265121749E-01  4.5726487140E-01
                       7.0008592426E-01  1.6147559737E-01  2.6195856275E-02
                       4.1513573666E-01  3.5603012292E-01  9.9037667684E-01
                       1.0852554777E+00  6.4399879410E-01  4.9007317205E-01
 
nshiftk 1
shiftk 
0.5 0.5 0.5
#chksymbreak 0
kptopt   1
ngkpt    2 2 2

ecut 30
ixc      -116133
nband    104
nstep    150
diemac   4


# Data set 1 - Refinement of already computed GS WFs       
irdwfk1   0
irdden1   0
iscf1     7
tolvrs1   1.0E-20
nstep1    100

# Data Set 2: Response Function calculation : d/dk 
rfelfd2    2 
rfdir2     1    1    1 

nqpt2      1 
qpt2       0.0  0.0  0.0  

getwfk2   -1 
getden2   -1 

kptopt2    2 

iscf2     -3 

tolwfr2    1.0d-22 

# Data set 3 : Response Function calculation - electric field perturbation, phonons, and strain

rfphon3   1            # Will consider phonon-type perturbation 
rfelfd3   3            # Electric Field
rfstrs3   3            # Strains

rfdir3    1   1   1    # Along all reduced coordinate axis 
rfatpol3  1   26        # All the atoms will be displaced 

nqpt3     1            # One wavevector is to be considered 
qpt3      0.0 0.0 0.0  # This wavevector is q=0 (Gamma) 

kptopt3   2            # Automatic generation of k points, taking 
                       # into account the time-reversal symmetry only 

getwfk3   1            # Read the ground-state wavefunctions 
getddk3   2
                                              
tolvrs3   1.0d-20      # SCF stopping criterion 
                       



# Printing flags
prtden    1
prteig    0
prtwf     1
prtposcar 0
prtcif    0

ecutsm  0.5
            ngfft          72      75      75
pawecutdg  30
pawxcdev   0
