#input for non-centrosymmetric orthorhombic HfO2

ndtset    1
autoparal 1

#Crystal Def.

nsym      1
ntypat   3
natom    26
typat    4*1 4*2 18*3
znucl    57 42 8

acell 3*1

rprim
  1.33022660028986E+01 -2.77202698364621E-02 -1.82507131235389E-01
 -1.87970949560990E-02  1.35776073587953E+01 -6.49478505082613E-01
 -1.84337973821736E-01 -6.74023844445904E-01  1.35770989488417E+01

xred      
  8.76346190065185E-01  8.38038072178557E-01  8.95379703527122E-01
  3.73459334168266E-01  6.68282505489011E-01  1.07963880213397E-01
  1.22733899951003E-01  3.87607733437235E-01  6.74232882972044E-01
  6.40656303455304E-01  1.38846343913291E-01  3.14420149339331E-01
  1.71132432176778E-01  2.05622696317797E-01  2.01115638408764E-01
  6.67251558155959E-01  2.97733001136785E-01  7.97389900552548E-01
  8.36777928781433E-01  6.19117020608301E-01  3.09909671685234E-01
  3.40178575997345E-01  8.81816653309681E-01  6.88555853048144E-01
  3.14862345608095E-01  2.91996299000014E-01  4.03995585092927E-01
  8.16990089364658E-01  2.21282842722157E-01  6.02618962753475E-01
  6.81721412641950E-01  8.10102699001881E-01  2.08252781666476E-01
  1.79331120210423E-01  6.99497294310806E-01  8.15484681488232E-01
  9.62544356650466E-01  6.35387656327439E-02  1.90785064951447E-01
  4.51406040900624E-01  4.22092977888114E-01  7.92671442386848E-01
  2.44576026406304E-02  6.97602242540826E-01  1.65781997779702E-01
  5.27006763399151E-01  7.98501234203100E-01  8.44843568582311E-01
  3.38900113206511E-01  1.02035150143557E+00  1.39874983832253E-01
  1.38491815931477E-01  3.99246337322851E-02  7.42805038019578E-01
  8.27347480355931E-01  4.87635154776279E-01  8.71733628775314E-01
  6.25373489838396E-01  4.65930520182830E-01  2.43717402220595E-01
  1.89032855605223E-01  3.58808857911895E-01  1.02472103318450E+00
  8.50305803979074E-01  7.11183996796935E-01  5.45630380311174E-01
  3.25534191034770E-01  7.55813541648455E-01  4.67387001543103E-01
  6.87801580970313E-01  1.41897723671530E-01 -2.81937544092261E-02
  9.80811260290552E-01  4.01862339504599E-01  3.44315381116376E-01
  4.99545454576658E-01  1.07491334860285E+00  6.34607141026888E-01

kptopt   1
            ngfft          72      75      75

ngkpt    2 2 2
nshiftk 1
shiftk 
0.5 0.5 0.5

ecut       30
pawecutdg  30
pawxcdev   0
ixc      -116133
nband    104
diemac   4

ecutsm  0.5
nstep    100
iscf     7
tolvrs   1.0E-20
ionmov   2
optcell  2
dilatmx  1.04
tolmxf   1e-8
ntime    250
strtarget 4*0.0 -1.69946e-05 0.0 



# Printing flags
prtden    1
prteig    0
prtwf     1
prtposcar 0
prtcif    1
