#input for non-centrosymmetric orthorhombic HfO2

ndtset    2

autoparal 1

#Crystal Def.
ntypat   3
natom    26
typat    4*1 4*2 18*3
znucl    57 42 8
acell 3*1

rprim
  1.35468206097412E+01 -4.41048218973547E-01  1.11992608144803E-04
 -4.65140580144673E-01  1.35502346832275E+01 -4.01837572271121E-04
 -9.40083176610461E-04 -1.94525208385076E-04  1.33271856857745E+01

             xred      8.3791484811E-01  8.9244536911E-01  8.7394421507E-01
                       3.7846787474E-01  6.7808109894E-01  1.2960458152E-01
                       1.2214029213E-01  3.2193170197E-01  6.2950320595E-01
                       6.6238095227E-01  1.0757812558E-01  3.7372981344E-01
                       2.0224289916E-01  2.0400428459E-01  1.6862910935E-01
                       6.1836152217E-01  3.1092790845E-01  8.3828658353E-01
                       8.8157634530E-01  6.8886177962E-01  3.3897969186E-01
                       2.9798996023E-01  7.9618272202E-01  6.6926543764E-01
                       2.8294158837E-01  4.0018462187E-01  3.1666122604E-01
                       8.0403144855E-01  1.9398962219E-01  6.7994681515E-01
                       6.9622457533E-01  8.0642733512E-01  1.8027725056E-01
                       2.1710322778E-01  6.0024237226E-01  8.1747691370E-01
                       1.0149358183E+00  1.3702552931E-01  3.3084849413E-01
                       4.6035085285E-01  2.5383749592E-01  6.3382367961E-01
                       3.9661692252E-02  7.4552074164E-01  1.3470161952E-01
                       4.8524101158E-01  8.6361150989E-01  8.3134930771E-01
                       3.5828908658E-01  1.0244416258E+00  1.8713647949E-01
                       1.4163712176E-01 -2.4492958817E-02  6.8689955017E-01
                       7.2487720645E-01  5.3884667963E-01  8.3916102950E-01
                       7.7431419720E-01  4.6126856270E-01  3.3933774964E-01
                       7.2075251759E-02  2.0503872164E-01  9.5512037017E-01
                       7.9794203519E-01  8.4245347168E-01  5.2526802658E-01
                       4.2772744763E-01  7.9435536396E-01  4.5560810770E-01
                       7.0204515487E-01  1.5769881335E-01  2.4745629692E-02
                       4.1455790074E-01  3.5450977733E-01  9.9436258502E-01
                       1.0849696886E+00  6.4502772423E-01  4.9533252723E-01
 
kptopt   1
            ngfft          72      75      75
ngkpt    2 2 2
nshiftk 1
shiftk 
0.5 0.5 0.5
ecut       30
ecutsm  0.5
pawecutdg  30
pawxcdev   0
ixc      -116133
nband    104
diemac   4

# First SCF run       
#irdwfk1   1
nstep1    100
iscf1     7
tolvrs1   1.0E-20

#Refinement using tolwfr
nstep2    250
getwfk2   -1
iscf2     7
tolwfr2   1.0E-20

# Printing flags
prtden    1
prteig    0
prtwf     1
prtposcar 0
prtcif    1
