#input for non-centrosymmetric orthorhombic HfO2

ndtset    2

autoparal 1

#Crystal Def.
ntypat   3
natom    26
typat    4*1 4*2 18*3
znucl    57 42 8
acell 3*1

rprim
  1.35724172396997E+01  6.82605032602973E-01 -1.78379257342655E-02
  6.95662134408343E-01  1.35779054854442E+01  1.49018790744758E-01
 -2.53292007777765E-02  1.46777495300972E-01  1.33082146493438E+01

             xred      8.6444556959E-01  8.1545505310E-01  8.6253186547E-01
                       3.3308268940E-01  6.0614027503E-01  1.2536965315E-01
                       1.6328066074E-01  3.9532518058E-01  6.2345475859E-01
                       6.1969699393E-01  1.7713537766E-01  3.7521228398E-01
                       1.1888497512E-01  1.8895641003E-01  1.6084160935E-01
                       7.0403146219E-01  2.9785453251E-01  8.3282312270E-01
                       7.9426330225E-01  7.0180528983E-01  3.2927042320E-01
                       3.8040945800E-01  8.0961147119E-01  6.6227836871E-01
                       3.0274057858E-01  3.1109493209E-01  3.2012353218E-01
                       7.8199331573E-01  1.0129810782E-01  6.8402793213E-01
                       7.0918546320E-01  9.0340663189E-01  1.8349578360E-01
                       1.9095518717E-01  7.0307730215E-01  8.1834562164E-01
                       9.6120537475E-01  2.4600480956E-01  3.6396842403E-01
                       5.1403546627E-01  3.6843826053E-01  6.7077682323E-01
                      -1.9554478052E-02  6.3704523951E-01  1.6325652058E-01
                       5.3502089312E-01  7.4409161358E-01  8.7203616278E-01
                       2.3875967375E-01  9.6446536659E-01  1.7098001320E-01
                       2.8125889473E-01  4.3066050060E-02  6.5526755440E-01
                       8.5841877247E-01  4.7271046219E-01  8.1037704091E-01
                       6.4078423853E-01  5.2608468895E-01  3.1225755458E-01
                       2.0115300148E-01  3.4218773443E-01  9.7303904492E-01
                       9.3374152470E-01  6.9483492582E-01  5.3885181165E-01
                       3.0191938537E-01  6.6374638376E-01  4.7481519382E-01
                       5.7613289004E-01  2.9830219945E-01  4.7256937520E-02
                      -7.9110981733E-02  1.3882118433E-01  4.0631408924E-03
                       5.9326568866E-01  8.4904051737E-01  5.1527882279E-01
 
kptopt   1
            ngfft          72      75      75
ngkpt    2 2 2
nshiftk 1
shiftk 
0.5 0.5 0.5
ecut       30
ecutsm  0.5
pawecutdg  30
pawxcdev   0
ixc      -116133
nband    104
diemac   4

# First SCF run       
#irdwfk1   1
nstep1    100
iscf1     7
tolvrs1   1.0E-20

#Refinement using tolwfr
nstep2    250
getwfk2   -1
iscf2     7
tolwfr2   1.0E-20

# Printing flags
prtden    1
prteig    0
prtwf     1
prtposcar 0
prtcif    1
