#input for non-centrosymmetric orthorhombic HfO2

ndtset    1
autoparal 1

#Crystal Def.

nsym      1
ntypat   3
natom    26
typat    4*1 4*2 18*3
znucl    57 42 8

acell 3*1

rprim
  1.35724182598065E+01  6.82605038298691E-01 -1.78381176240875E-02
  6.95662193971432E-01  1.35779054177262E+01  1.49019003776361E-01
 -2.53294030170726E-02  1.46777721045180E-01  1.33082139727770E+01


xred      
  8.64445476188985E-01  8.15454952263823E-01  8.62531806232695E-01
  3.33082679638833E-01  6.06140278522063E-01  1.25369673419918E-01
  1.63280678499637E-01  3.95325198193279E-01  6.23454706969039E-01
  6.19697047187660E-01  1.77135389748331E-01  3.75212178548200E-01
  1.18884868113456E-01  1.88956401645288E-01  1.60841659858827E-01
  7.04031435938348E-01  2.97854548245966E-01  8.32823067298153E-01
  7.94263300175298E-01  7.01805306713650E-01  3.29270407047021E-01
  3.80409543765483E-01  8.09611460586248E-01  6.62278418505332E-01
  3.02740558840820E-01  3.11094886985872E-01  3.20123514734346E-01
  7.81993317139316E-01  1.01298050321097E-01  6.84027999386876E-01
  7.09185307134847E-01  9.03406650880505E-01  1.83495816468045E-01
  1.90955236249851E-01  7.03077362127732E-01  8.18345592639159E-01
  9.61205306410968E-01  2.46004953002167E-01  3.63968490468256E-01
  5.14035518851679E-01  3.68438291605193E-01  6.70776702312495E-01
 -1.95545345906126E-02  6.37045256313886E-01  1.63256472287264E-01
  5.35020948520636E-01  7.44091477709182E-01  8.72036249065364E-01
  2.38759498417750E-01  9.64465327528875E-01  1.70980162951900E-01
  2.81259085522732E-01  4.30660665432243E-02  6.55267631829996E-01
  8.58418858335062E-01  4.72710385672638E-01  8.10376940634075E-01
  6.40784306868947E-01  5.26084665741676E-01  3.12257474518560E-01
  2.01152912154744E-01  3.42187711135471E-01  9.73039093303564E-01
  9.33741659144880E-01  6.94834943035126E-01  5.38851724890988E-01
  3.01919526294963E-01  6.63746405180095E-01  4.74815196423012E-01
  5.76132761570251E-01  2.98302310358119E-01  4.72568369654037E-02
 -7.91111220415334E-02  1.38821261547706E-01  4.06325662647612E-03
  5.93265825647080E-01  8.49040458408778E-01  5.15278926611615E-01



kptopt   1
ngkpt    2 2 2
nshiftk 1
shiftk 
0.5 0.5 0.5

ecut       30
pawecutdg  30
pawxcdev   0
ixc      -116133
nband    104
diemac   4

ecutsm  0.5
nstep    100
iscf     7
tolvrs   1.0E-20
ionmov   2
optcell  2
dilatmx  1.04
tolmxf   1e-8
ntime    150
strtarget 3*0.0 1.69946e-05  2*0.0



# Printing flags
prtden    1
prteig    0
prtwf     1
prtposcar 0
prtcif    1
