#input for KTaO3

ndtset    3

autoparal 1

#Crystal Def.
ntypat   3
natom    26
typat    4*1 4*2 18*3
znucl    57 42 8
acell 3*1


rprim
  1.32905966535008E+01 -1.34916675278173E-01  9.83077621881807E-02
 -1.41679311399045E-01  1.36264320740178E+01 -6.66644453100761E-02
  1.25053774934517E-01 -6.86713127066927E-02  1.36382695977197E+01

             xred      8.7487514682E-01  8.5249448693E-01  8.6525748990E-01
                       3.3288580087E-01  6.2154378614E-01  1.9371949886E-01
                       1.4332932362E-01  3.5219599376E-01  6.3822364361E-01
                       6.5121540217E-01  1.1606863539E-01  3.1490730610E-01
                       1.3849054785E-01  1.7626774810E-01  1.8620607105E-01
                       6.5877007348E-01  3.2915861917E-01  8.0974857473E-01
                       8.5026752019E-01  6.7745036343E-01  3.2532595286E-01
                       3.6460247096E-01  8.5860058082E-01  7.0623166832E-01
                       2.9725586375E-01  6.4295940838E-01  8.0913329546E-01
                       3.1742995535E-01  3.1470496631E-01  3.3526008512E-01
                       6.6458897590E-01  7.8573422050E-01  1.6468333275E-01
                       8.5281240463E-01  1.8689863059E-01  7.5393014218E-01
                       1.0449240811E-02  6.8587439250E-01  1.1201586783E-01
                       2.8403249050E-01  9.7896745498E-01  1.5424326255E-01
                       8.1227326821E-01  8.6096146146E-01  4.9293216105E-01
                       7.5599844671E-01  5.5255493585E-01  7.6816368742E-01
                       5.5530728589E-01  9.5502062795E-01  8.3135181417E-01
                       9.7914700485E-01  2.0748373961E-01  3.9723880550E-01
                       7.1096792106E-01  4.7633314257E-01  3.6798165965E-01
                       1.6904598325E-01  3.4170085370E-01  1.0036952660E+00
                       4.7745738782E-01  2.7385456400E-01  6.4886982961E-01
                       1.6697270179E-01  5.4281277252E-03  7.2875814949E-01
                       1.0832707141E+00  6.1068027360E-01  4.4302453913E-01
                       5.7770545790E-01  3.2107670459E-01  4.1679629237E-02
                       4.2848899206E-01  8.4016446626E-01  4.7026472663E-01
                      -9.2802765991E-02  7.8682189174E-02  1.0955565004E+00
 
nshiftk 1
shiftk 
0.5 0.5 0.5
#chksymbreak 0
kptopt   1
ngkpt    2 2 2

ecut 30
ixc      -116133
nband    104
nstep    150
diemac   4


# Data set 1 - Refinement of already computed GS WFs       
irdwfk1   0
irdden1   0
iscf1     7
tolvrs1   1.0E-20
nstep1    100

# Data Set 2: Response Function calculation : d/dk 
rfelfd2    2 
rfdir2     1    1    1 

nqpt2      1 
qpt2       0.0  0.0  0.0  

getwfk2   -1 
getden2   -1 

kptopt2    2 

iscf2     -3 

tolwfr2    1.0d-22 

# Data set 3 : Response Function calculation - electric field perturbation, phonons, and strain

rfphon3   1            # Will consider phonon-type perturbation 
rfelfd3   3            # Electric Field
rfstrs3   3            # Strains

rfdir3    1   1   1    # Along all reduced coordinate axis 
rfatpol3  1   26        # All the atoms will be displaced 

nqpt3     1            # One wavevector is to be considered 
qpt3      0.0 0.0 0.0  # This wavevector is q=0 (Gamma) 

kptopt3   2            # Automatic generation of k points, taking 
                       # into account the time-reversal symmetry only 

getwfk3   1            # Read the ground-state wavefunctions 
getddk3   2
                                              
tolvrs3   1.0d-20      # SCF stopping criterion 
                       



# Printing flags
prtden    1
prteig    0
prtwf     1
prtposcar 0
prtcif    0

ecutsm  0.5
            ngfft          72      75      75
pawecutdg  30
pawxcdev   0
