#input for non-centrosymmetric orthorhombic HfO2

ndtset    2

autoparal 1

#Crystal Def.
ntypat   3
natom    26
typat    4*1 4*2 18*3
znucl    57 42 8
acell 3*1

rprim
  1.32994349254716E+01 -9.43143180967052E-04  6.81620424018296E-03
 -6.07579370062975E-04  1.36312636494908E+01  6.88665743242182E-01
  6.89850261216144E-03  7.19539315395212E-01  1.35490920460163E+01

             xred      8.6979951520E-01  8.7190006611E-01  8.1837873988E-01
                       3.7030805493E-01  6.2668913040E-01  1.8082339887E-01
                       1.2456812035E-01  3.3483699766E-01  6.0476441032E-01
                       6.2410566595E-01  1.6499119279E-01  3.9545047808E-01
                       1.6123435094E-01  1.1920080604E-01  1.8922463947E-01
                       6.6172470881E-01  3.8075067820E-01  8.1068576343E-01
                       8.3103283248E-01  7.0459174063E-01  2.9829002056E-01
                       3.3110204316E-01  7.9473913245E-01  7.0171401378E-01
                       3.1932679007E-01  3.0573536498E-01  3.0415611464E-01
                       8.1945216901E-01  1.9407957292E-01  6.9751379825E-01
                       6.8375815010E-01  7.8383771869E-01  9.8144702495E-02
                       1.8352154896E-01  7.1452602035E-01  9.0176799920E-01
                       9.7389462668E-01  2.0008830899E-01  3.3965763145E-01
                       4.7401492057E-01  2.9992941892E-01  6.6109416494E-01
                       4.3703647773E-02  5.7257162625E-01  3.0085844873E-01
                       5.4315905725E-01  9.2799019464E-01  6.9884883985E-01
                       3.6769938468E-01  9.6374040143E-01  2.4961793444E-01
                       1.6738102421E-01 -1.7532892095E-02  6.3349857439E-01
                       8.6790558197E-01  5.3681127109E-01  7.4920547839E-01
                       6.6788977382E-01  5.1667098923E-01  3.6733445073E-01
                       1.6343010760E-01  2.3003031189E-01  9.6014902482E-01
                       8.1094086654E-01  8.5883777984E-01  4.7287642111E-01
                       3.1134491175E-01  6.4153099586E-01  5.2627726424E-01
                       6.6272818971E-01  2.7261091774E-01  4.0882409142E-02
                       7.7399049982E-03 -8.4046094850E-02  1.4395951284E-01
                       5.0823405249E-01  5.8488834985E-01  8.5482576597E-01
 
kptopt   1
            ngfft          72      75      75
ngkpt    2 2 2
nshiftk 1
shiftk 
0.5 0.5 0.5
ecut       30
ecutsm  0.5
pawecutdg  30
pawxcdev   0
ixc      -116133
nband    104
diemac   4

# First SCF run       
#irdwfk1   1
nstep1    100
iscf1     7
tolvrs1   1.0E-20

#Refinement using tolwfr
nstep2    250
getwfk2   -1
iscf2     7
tolwfr2   1.0E-20

# Printing flags
prtden    1
prteig    0
prtwf     1
prtposcar 0
prtcif    1
