#input for non-centrosymmetric orthorhombic HfO2

ndtset    1
nsym      1
autoparal 1

#Crystal Def.
ntypat   3
natom    26
typat    4*1 4*2 18*3
znucl    57 42 8
acell 3*1

rprim
  1.32994349381308E+01 -9.43144626478659E-04  6.81620243989084E-03
 -6.07580934483761E-04  1.36312636664260E+01  6.88665724205779E-01
  6.89850070758310E-03  7.19539297604258E-01  1.35490920413127E+01

xred 
  8.69799515140171E-01  8.71900065758202E-01  8.18378740308658E-01
  3.70308055382295E-01  6.26689130726455E-01  1.80823398416143E-01
  1.24568120528442E-01  3.34836997681634E-01  6.04764410353585E-01
  6.24105666161037E-01  1.64991192455329E-01  3.95450478169388E-01
  1.61234351403512E-01  1.19200805806589E-01  1.89224639133707E-01
  6.61724709419529E-01  3.80750678377493E-01  8.10685763589687E-01
  8.31032832166925E-01  7.04591740256067E-01  2.98290020392006E-01
  3.31102042863907E-01  7.94739132855965E-01  7.01714014157119E-01
  3.19326789984821E-01  3.05735364568263E-01  3.04156114168158E-01
  8.19452168156848E-01  1.94079573338114E-01  6.97513798396349E-01
  6.83758150260107E-01  7.83837718824935E-01  9.81447023430150E-02
  1.83521548574903E-01  7.14526020719593E-01  9.01767999275544E-01
  9.73894627283766E-01  2.00088308997118E-01  3.39657631386200E-01
  4.74014920846146E-01  2.99929418952178E-01  6.61094165610490E-01
  4.37036469590830E-02  5.72571626252103E-01  3.00858448497113E-01
  5.43159056854133E-01  9.27990194625935E-01  6.98848840486202E-01
  3.67699384360986E-01  9.63740401166355E-01  2.49617934640016E-01
  1.67381024737198E-01 -1.75328922647177E-02  6.33498573940095E-01
  8.67905581423433E-01  5.36811271004052E-01  7.49205478346582E-01
  6.67889774320561E-01  5.16670989353155E-01  3.67334451065989E-01
  1.63430107641814E-01  2.30030312047535E-01  9.60149024929113E-01
  8.10940866631819E-01  8.58837779942318E-01  4.72876420757230E-01
  3.11344911599800E-01  6.41530996037262E-01  5.26277264566077E-01
  6.62728189581651E-01  2.72610918173117E-01  4.08824088776363E-02
  7.73990532465101E-03 -8.40460946495555E-02  1.43959512913517E-01
  5.08234052423202E-01  5.84888348997641E-01  8.54825765289352E-01
ngkpt    2 2 2
nshiftk 1
shiftk 
0.5 0.5 0.5

ecut       30
pawecutdg  30
pawxcdev   0
ixc      -116133
nband    104
diemac   4

ecutsm  0.5
nstep    100
iscf     7
tolvrs   1.0E-20
ionmov   2
optcell  2
dilatmx  1.04
tolmxf   1e-8
ntime    150
strtarget 0.000 1*1.69946e-05 0.00 3*0.0



# Printing flags
prtden    1
prteig    0
prtwf     1
prtposcar 0
prtcif    1
