#input for non-centrosymmetric orthorhombic HfO2

ndtset    1

autoparal 1

#Crystal Def.
ntypat   3
natom    26
typat    4*1 4*2 18*3
znucl    57 42 8
acell 3*1
nsym 0

rprim
  1.35705021541584E+01  0.00000000000000E+00 -7.04946492789940E-01
  0.00000000000000E+00  1.33112251162172E+01  0.00000000000000E+00
 -7.02414421165973E-01  0.00000000000000E+00  1.35756195968195E+01

xred
  8.95173683698806E-01  8.75860534587250E-01  8.35008880446186E-01
  3.18649942215347E-01  6.30371828227942E-01  1.28338811240988E-01
  1.04826316301194E-01  3.75860534587250E-01  6.64991119553814E-01
  6.81350057784652E-01  1.30371828227942E-01  3.71661188759012E-01
  2.02258361362139E-01  1.68781936201497E-01  2.05257774507309E-01
  6.89481550260263E-01  3.38510324469288E-01  8.80265327973231E-01
  7.97741638637862E-01  6.68781936201497E-01  2.94742225492690E-01
  3.10518449739737E-01  8.38510324469288E-01  6.19734672026769E-01
  4.01704457263188E-01  3.16383427421564E-01  2.86179065308171E-01
  8.04112303568443E-01  1.80736436355645E-01  6.93853271370816E-01
  5.98295542736811E-01  8.16383427421563E-01  2.13820934691829E-01
  1.95887696431558E-01  6.80736436355646E-01  8.06146728629184E-01
  1.02700185291605E+00  1.88818515668241E-01  3.58920215910706E-01
  4.60345827844170E-01  3.36515168696506E-01  7.69994309817737E-01
 -2.70018529160468E-02  6.88818515668242E-01  1.41079784089294E-01
  5.39654172155830E-01  8.36515168696505E-01  7.30005690182263E-01
  1.98342067464017E-01  9.56759120823525E-01  7.17724115541260E-02
  1.60970385374029E-01  2.61512869769269E-02  7.00049095880077E-01
  8.39029614625970E-01  5.26151286976927E-01  7.99950904119923E-01
  8.01657932535982E-01  4.56759120823525E-01  4.28227588445874E-01
  1.34085391513370E-01  3.32650356691090E-01  1.01696952934812E+00
  8.65914608486630E-01  8.32650356691089E-01  4.83030470651878E-01
  2.49159906236348E-01  6.32269728638534E-01  4.63263502225307E-01
  7.50840093763652E-01  1.32269728638534E-01  3.67364977746931E-02
  6.44287562170696E-01  4.91191335242189E-01  1.08513858221526E+00
  3.55712437829304E-01  9.91191335242189E-01  4.14861417784742E-01

kptopt   1
ngkpt    2 2 2
nshiftk 1
shiftk 
0.5 0.5 0.5

ecut       30
pawecutdg  30
pawxcdev   0
ixc      -116133
nband    104
diemac   4
ecutsm   0.5

# First SCF run       
#irdwfk1   1
nstep    100
iscf     7
tolvrs   1.0E-20
ionmov   2
optcell  2
dilatmx  1.04
tolmxf   1e-10
ntime    150

# Printing flags
prtden    1
prteig    0
prtwf     1
prtposcar 0
prtcif    0
