#input for non-centrosymmetric orthorhombic HfO2

ndtset    1
nsym      1
autoparal 1

#Crystal Def.
ntypat   3
natom    26
typat    4*1 4*2 18*3
znucl    57 42 8

acell 3*1


rprim
  1.33373859086252E+01 -1.97488573576043E-04 -2.48656909193907E-04
 -2.21368675928281E-04  1.34734479774817E+01  6.76371667959397E-01
 -2.69608000173077E-04  6.96415070949028E-01  1.35998231435489E+01

xred      
  8.69554218806847E-01  8.71234623388079E-01  8.19565295102283E-01
  3.69310736235738E-01  6.28839269266265E-01  1.80412947188501E-01
  1.23925656357864E-01  3.35910349530905E-01  6.05158266630796E-01
  6.23712191237736E-01  1.64062768982995E-01  3.94779301281741E-01
  1.60884547440907E-01  1.20560500314622E-01  1.89375335496694E-01
  6.61129965628103E-01  3.79476657030797E-01  8.10477120881883E-01
  8.31501065399447E-01  7.04606715470459E-01  2.97688328148286E-01
  3.31659460235877E-01  7.95048916629939E-01  7.02476177079855E-01
  3.18913484917791E-01  3.06322502252999E-01  3.05305944212885E-01
  8.19039008055979E-01  1.93818640081176E-01  6.94757044513982E-01
  6.83923860424520E-01  7.87594239627734E-01  9.94577283951315E-02
  1.83720132431357E-01  7.12245547093744E-01  9.00557617240556E-01
  9.73705671604527E-01  1.99992387826711E-01  3.39095919480727E-01
  4.73704048309501E-01  2.99773751813566E-01  6.61044191887000E-01
  4.36316626624551E-02  5.70962596748107E-01  3.02419857283252E-01
  5.43773432695166E-01  9.28699035309068E-01  6.97820488269544E-01
  3.67248397164014E-01  9.62874873306443E-01  2.49641055293181E-01
  1.67647374571151E-01 -1.55885866105452E-02  6.35120387719346E-01
  8.67068808722186E-01  5.37628496337244E-01  7.49913935297956E-01
  6.67416637485025E-01  5.15343401775682E-01  3.65149120599550E-01
  1.62280822541171E-01  2.32774893589249E-01  9.61400551056342E-01
  8.12317809382140E-01  8.58920683734846E-01  4.73203296174980E-01
  3.12360480809282E-01  6.41281592839568E-01  5.26518215147967E-01
  6.63031031593802E-01  2.67842557072611E-01  3.86753177844290E-02
  9.39383266504408E-03 -8.62322962655329E-02  1.43342396894343E-01
  5.09145662664715E-01  5.86005882844528E-01  8.56644160919065E-01

kptopt   1
ngkpt    2 2 2
nshiftk 1
shiftk 
0.5 0.5 0.5

ecut       30
pawecutdg  30
pawxcdev   0
ixc      -116133
nband    104
diemac   4

ecutsm  0.5
nstep    100
iscf     7
tolvrs   1.0E-20
ionmov   2
optcell  2
dilatmx  1.04
tolmxf   1e-8
ntime    150
strtarget 0.000 1*-3.39893e-05 0.00 3*0.0



# Printing flags
prtden    1
prteig    0
prtwf     1
prtposcar 0
prtcif    1
