#input for KTaO3

ndtset    3

autoparal 1

#Crystal Def.
ntypat   3
natom    26
typat    4*1 4*2 18*3
znucl    57 42 8
acell 3*1


rprim
  1.34026210732222E+01  7.24131824832156E-04 -1.91161701855699E-03
  6.27275783548993E-04  1.35476864382262E+01 -6.82411140005007E-01
 -1.90068166238078E-03 -7.07320397378839E-01  1.35386910581803E+01

             xred      8.7634013676E-01  8.3538204348E-01  8.9516744320E-01
                       3.7608819584E-01  6.6492064202E-01  1.0522627771E-01
                       1.2950624073E-01  3.7268073548E-01  6.8180904607E-01
                       6.2958397130E-01  1.2817924169E-01  3.1785413276E-01
                       1.6840378845E-01  2.0518902617E-01  2.0289890422E-01
                       6.6850447578E-01  2.9547075928E-01  7.9696467989E-01
                       8.3885552204E-01  6.1944535905E-01  3.1070451864E-01
                       3.3925964765E-01  8.8036275115E-01  6.8932471283E-01
                       3.1510448210E-01  2.8667233922E-01  4.0258803934E-01
                       8.1528186708E-01  2.1430606048E-01  5.9742868556E-01
                       6.8132159917E-01  8.0581118226E-01  1.9548914440E-01
                       1.8127981274E-01  6.9440777258E-01  8.0557417923E-01
                       9.5653795770E-01  7.3072535090E-02  1.9695452479E-01
                       4.5667723196E-01  4.2728646281E-01  8.0114778132E-01
                       2.5213901115E-02  7.0031332319E-01  1.6132542930E-01
                       5.2527182450E-01  7.9991497171E-01  8.3955008506E-01
                       3.3144654749E-01  1.0163365128E+00  1.3541482186E-01
                       1.3416361366E-01  3.7430793736E-02  7.4979440658E-01
                       8.3144258471E-01  4.8382062388E-01  8.6604103146E-01
                       6.3397244590E-01  4.6223410068E-01  2.4955761321E-01
                       1.8962269809E-01  3.5958815635E-01  1.0275293054E+00
                       8.3718379697E-01  7.2958533758E-01  5.4050958616E-01
                       3.3703858782E-01  7.6800878062E-01  4.6037394447E-01
                       6.8828715275E-01  1.4028831686E-01 -2.8205703716E-02
                       9.9172979702E-01  4.1501915458E-01  3.5608202834E-01
                       4.9188212064E-01  1.0842730172E+00  6.4289538203E-01
 
nshiftk 1
shiftk 
0.5 0.5 0.5
#chksymbreak 0
kptopt   1
ngkpt    2 2 2

ecut 30
ixc      -116133
nband    104
nstep    150
diemac   4


# Data set 1 - Refinement of already computed GS WFs       
irdwfk1   0
irdden1   0
iscf1     7
tolvrs1   1.0E-20
nstep1    100

# Data Set 2: Response Function calculation : d/dk 
rfelfd2    2 
rfdir2     1    1    1 

nqpt2      1 
qpt2       0.0  0.0  0.0  

getwfk2   -1 
getden2   -1 

kptopt2    2 

iscf2     -3 

tolwfr2    1.0d-22 

# Data set 3 : Response Function calculation - electric field perturbation, phonons, and strain

rfphon3   1            # Will consider phonon-type perturbation 
rfelfd3   3            # Electric Field
rfstrs3   3            # Strains

rfdir3    1   1   1    # Along all reduced coordinate axis 
rfatpol3  1   26        # All the atoms will be displaced 

nqpt3     1            # One wavevector is to be considered 
qpt3      0.0 0.0 0.0  # This wavevector is q=0 (Gamma) 

kptopt3   2            # Automatic generation of k points, taking 
                       # into account the time-reversal symmetry only 

getwfk3   1            # Read the ground-state wavefunctions 
getddk3   2
                                              
tolvrs3   1.0d-20      # SCF stopping criterion 
                       



# Printing flags
prtden    1
prteig    0
prtwf     1
prtposcar 0
prtcif    0

ecutsm  0.5
            ngfft          72      75      75
pawecutdg  30
pawxcdev   0
