#input for non-centrosymmetric orthorhombic HfO2

ndtset    2

autoparal 1

#Crystal Def.
ntypat   3
natom    104
typat    16*1 16*2 72*3
znucl    57 42 8
acell 3*1

rprim
  2.67623601762352E+01 -6.67219323827239E-01  9.22851890790839E-02
 -6.63824138354289E-01  2.72135052786081E+01 -8.63055668458310E-02
  4.00229593214657E-02 -4.23449823243403E-02  1.36599003412666E+01

             xred      4.2990923472E-01  4.3732503084E-01  8.2988789788E-01
                       1.4695285517E-01  3.0165977195E-01  1.1474043300E-01
                       1.0466152134E-01  1.6918046126E-01  5.9456139439E-01
                       3.2344119389E-01  6.0122810670E-02  3.2848620211E-01
                       9.1303723112E-01  4.3693920162E-01  8.7916486718E-01
                       6.8455336246E-01  3.3703240036E-01  1.6990257574E-01
                       5.6714991496E-01  2.0031342378E-01  7.1081792933E-01
                       8.3039787746E-01  7.4907785691E-02  3.7247967515E-01
                       4.3290095008E-01  9.3895118386E-01  8.4233574634E-01
                       1.8826827315E-01  8.2635678620E-01  1.4125406859E-01
                       9.7297101752E-02  6.7054769115E-01  6.1344085777E-01
                       3.2557337552E-01  5.6926353204E-01  3.3343309838E-01
                       9.0692279009E-01  9.3893423895E-01  8.6015593912E-01
                       6.5829637445E-01  8.1655348841E-01  2.0015902540E-01
                       5.5645540315E-01  6.8363580271E-01  6.5346993599E-01
                       8.0917288084E-01  5.7251826291E-01  3.4795764306E-01
                       9.1883651116E-02  6.3572017738E-02  1.5481737990E-01
                       3.2544112290E-01  1.7111425798E-01  7.8608897109E-01
                       4.0118522596E-01  3.2776136638E-01  3.0857436848E-01
                       1.5887189740E-01  4.0143636197E-01  6.5488616803E-01
                       5.9910800387E-01  9.6467036820E-02  1.8224283469E-01
                       8.4813683112E-01  1.6734024734E-01  8.2397606101E-01
                       9.1968981414E-01  3.3354165940E-01  3.2511429744E-01
                       6.7038219196E-01  4.2546091695E-01  7.0675542817E-01
                       8.3490304081E-02  5.4732803801E-01  1.7964794831E-01
                       3.1979121619E-01  6.6451474550E-01  8.0995401840E-01
                       4.2358604335E-01  8.4568526117E-01  2.9836585586E-01
                       1.3802994821E-01  8.9831635670E-01  6.9481049839E-01
                       5.7237489625E-01  5.8625854847E-01  1.9873038321E-01
                       8.4046807699E-01  6.7391515981E-01  8.2741357118E-01
                       9.1051066206E-01  8.2846940095E-01  3.2713045667E-01
                       6.7479609594E-01  9.3431390398E-01  7.1566883585E-01
                       7.0430501849E-02  3.4680251903E-01  8.0369753329E-01
                       1.7504408571E-01  1.5430686632E-01  2.8037089392E-01
                       3.2708152366E-01  3.5011332856E-01  1.1782910025E-01
                       4.2769115222E-01  9.5899289250E-02  7.0277311528E-01
                       5.8271258314E-01  3.5377564313E-01  8.6235880792E-01
                       6.1451362364E-01  1.5101287366E-01  3.9948599819E-01
                       8.3866914081E-01  4.1951469781E-01  2.1312691547E-01
                       9.3367151409E-01  1.4347662566E-01  6.4690291468E-01
                       5.9587908003E-02  8.1429422966E-01  7.9980106209E-01
                       1.5406251399E-01  6.4847368404E-01  2.5898176479E-01
                       3.4366012835E-01  9.1497731350E-01  1.3727012885E-01
                       4.1128099409E-01  5.8896446778E-01  6.9611532017E-01
                       5.7322168298E-01  8.5188938182E-01  7.4708864648E-01
                       6.5701738425E-01  6.5981204653E-01  3.6113639375E-01
                       8.7117137512E-01  9.2727056033E-01  2.0588054413E-01
                       9.2047120094E-01  6.4520133489E-01  6.4514438086E-01
                       8.0939084149E-02  1.4613336893E-01  9.6906358348E-01
                       9.9673310866E-01  6.8916983559E-02  3.1458249447E-01
                       1.8123678116E-01  9.8229807237E-01  2.5214241394E-01
                       3.9625234236E-01  4.2111943416E-01  4.7179686597E-01
                       3.6629524203E-01  2.2187693809E-01  4.1529365382E-01
                       5.1650419485E-01  3.1141930155E-01  2.3134022305E-01
                       3.1511881286E-01  1.2490098140E-01  8.6836307296E-03
                       4.1578744181E-01  2.6874286350E-01  7.7971035469E-01
                       2.5028008929E-01  9.6051799280E-02  6.2490956130E-01
                       2.5970958096E-01  4.4323061256E-01  7.7453811005E-01
                       1.8311136176E-01  3.2884913577E-01  4.6249796037E-01
                       1.0750521458E-01  5.0116355108E-01  5.6764807011E-01
                       1.0146992498E-02  4.0456205948E-01  1.5217067691E-01
                       9.2071625247E-01  3.7831508770E-01  5.4912806526E-01
                       8.2333892181E-01  2.4306713791E-01  3.0992819219E-01
                       4.8066838006E-01  6.0072414202E-02  1.4038299084E-01
                       6.3898763668E-01  1.8413889845E-01  1.0224081148E+00
                       6.7836139636E-01  1.0063053599E+00  1.8751790111E-01
                       7.5370588645E-01  3.8875578610E-01  8.8913015688E-01
                       6.5365001397E-01  3.4654873602E-01  5.1781644356E-01
                       5.8508308184E-01  5.1512916830E-01  7.0688611255E-01
                       8.4816281065E-01  8.6606900315E-02  1.3268770161E-02
                       8.9105564568E-01  2.7047447164E-01  9.3363291747E-01
                       7.4342537561E-01  1.9475480109E-01  7.1248454525E-01
                       3.2752612010E-01  5.9740707902E-01  1.4933332915E-02
                       3.9656330442E-01  7.6615609670E-01  8.0481660282E-01
                       2.5264348408E-01  6.3396199601E-01  5.8943617812E-01
                       1.8138518654E-01  4.7058004769E-01  1.9991401641E-01
                       5.2294612632E-02  5.6441351086E-01  9.4469426851E-01
                       9.8224089790E-01  5.6816700424E-01  3.2183400352E-01
                       4.0035383465E-01  9.2706950290E-01  4.8461560940E-01
                       3.3917027536E-01  7.4927826632E-01  2.8714617962E-01
                       5.1182331430E-01  8.7115471859E-01  1.0608129516E-01
                       7.2632734460E-02 -3.3798188236E-03  6.4119782056E-01
                       2.3987112771E-01  9.1775581770E-01  8.3407535497E-01
                       1.7139548667E-01  8.3110437307E-01  4.9832298227E-01
                       6.6451623324E-01  4.9993326132E-01  2.0976265742E-01
                       4.8458526594E-01  6.1602701461E-01  3.7311570269E-01
                       5.8378577998E-01  6.7167991263E-01  1.0199063220E+00
                       8.3621485204E-01  5.8407568239E-01 -3.3051273626E-03
                       8.8434275164E-01  7.7462971972E-01  9.4191970334E-01
                       7.2949414283E-01  6.9531009667E-01  7.3635195413E-01
                       6.0335304864E-01  3.1449399755E-02  7.7293111564E-01
                       7.3929893270E-01  8.8673388352E-01  9.0596802700E-01
                       6.9818497686E-01  8.9772214846E-01  4.8078199888E-01
                       2.2816210843E-02  7.9182417875E-01  2.6485076803E-01
                       9.1340984454E-01  8.5905079136E-01  5.6135468822E-01
                       8.2120147137E-01  7.3937137311E-01  2.9645897909E-01
                       5.8639535080E-02 -3.8802967038E-02  1.1522452690E-02
                       2.2539825419E-01  2.5120378243E-01  7.9172730944E-01
                       1.0170786744E+00  2.5649033670E-01  3.3124721059E-01
                       7.7237712056E-01  5.0245185658E-01  6.3374382438E-01
                       2.0554021233E-01  7.1529986545E-01  8.7652192245E-01
                       5.2434138349E-01  7.9429752341E-01  4.0926653921E-01
                       4.8302476089E-01  5.0037422876E-01  1.1320940948E-01
                       7.9469688656E-01  1.0182534402E+00  6.7424720329E-01
 
kptopt   1
            ngfft         144     144      72
ngkpt    1 1 2
nshiftk 1
shiftk 
0.5 0.5 0.5
ecut       30
ecutsm   0.5
pawecutdg  30
pawxcdev   0
ixc      -116133
nband    420
diemac   4

# First SCF run       
#irdwfk1   1
nstep1    100
iscf1     7
tolvrs1   1.0E-20

#Refinement using tolwfr
nstep2    250
getwfk2   -1
iscf2     7
tolwfr2   1.0E-20

# Printing flags
prtden    1
prteig    0
prtwf     1
prtposcar 0
prtcif    1
