#input for non-centrosymmetric orthorhombic HfO2

ndtset    1
autoparal 1

#Crystal Def.

nsym     1
ntypat   3
natom    26
typat    4*1 4*2 18*3
znucl    57 42 8

acell 3*1

rprim
  1.33116286677759E+01  7.39095710890203E-02 -1.52010612851454E-02
  7.45906477126612E-02  1.35766085753924E+01  6.84283709080218E-01
 -1.15395323338816E-02  7.11446684453043E-01  1.35666935899366E+01

xred
  8.70788939506874E-01  8.72239246405589E-01  8.19073002025685E-01
  3.68396053813792E-01  6.28316287587253E-01  1.81107787303969E-01
  1.24227973383178E-01  3.35392516904364E-01  6.05132435378780E-01
  6.24169690019525E-01  1.64940396633069E-01  3.95356656368509E-01
  1.60831159937688E-01  1.19247737720725E-01  1.89595467385033E-01
  6.61994738846988E-01  3.80102416534622E-01  8.10833304333867E-01
  8.30277490819612E-01  7.04159048643272E-01  2.97848962706414E-01
  3.32082392891499E-01  7.94664666840876E-01  7.01724771489918E-01
  3.18967177454383E-01  3.05854425000466E-01  3.03728912984475E-01
  8.19638947231130E-01  1.93971070170934E-01  6.95724439935275E-01
  6.84127629351294E-01  7.85796688441728E-01  9.75252453509110E-02
  1.83249489168215E-01  7.14183860701639E-01  9.00159718685702E-01
  9.73911203292712E-01  2.00855739796979E-01  3.39761044433713E-01
  4.73905852417497E-01  3.00946035414985E-01  6.61400722262931E-01
  4.31462203892547E-02  5.70244181824002E-01  3.00276129267118E-01
  5.43512742260776E-01  9.27269542101125E-01  6.97476657696013E-01
  3.68669728159686E-01  9.62625956394504E-01  2.50799641821098E-01
  1.67374493029658E-01 -1.56666347231634E-02  6.34581727921592E-01
  8.66822311225777E-01  5.36386704987604E-01  7.50311883052554E-01
  6.67474953632089E-01  5.17306011562014E-01  3.66859864160149E-01
  1.61797338287010E-01  2.29951244917583E-01  9.60635875169063E-01
  8.12278907100705E-01  8.58870351075119E-01  4.72746238695722E-01
  3.10747891145025E-01  6.41707642325102E-01  5.26081319294473E-01
  6.64207300975957E-01  2.70021534077965E-01  4.00051380708305E-02
  9.49866201857753E-03 -8.49993964342385E-02  1.44848082638735E-01
  5.07900713671905E-01  5.85612725098794E-01  8.56404971576457E-01

kptopt   1
ngkpt    2 2 2
nshiftk 1
shiftk 
0.5 0.5 0.5

ecut       30
pawecutdg  30
pawxcdev   0
ixc      -116133
nband    104
diemac   4

ecutsm  0.5
nstep    100
iscf     7
tolvrs   1.0E-20
ionmov   2
optcell  2
dilatmx  1.04
tolmxf   1e-8
ntime    150
strtarget 3*0.0 2*0.0 1.69946e-05



# Printing flags
prtden    1
prteig    0
prtwf     1
prtposcar 0
prtcif    1
