#input for non-centrosymmetric orthorhombic HfO2

ndtset    1

autoparal 1

#Crystal Def.
ntypat   3
natom    26
typat    4*1 4*2 18*3
znucl    57 42 8
acell 3*1

nsym 0

rprim
13.4310651   0.0000000  -0.4906896 
 0.0000000  14.0848519   0.0000000 
-0.4906896   0.0000000  13.5253014 


             xred      
8.9632083176E-01  8.7156606062E-01  8.4325646781E-01
                       3.0521660729E-01  6.2559178867E-01  1.9525419578E-01
                       1.0367916824E-01  3.7156606062E-01  6.5674353219E-01
                       6.9478339271E-01  1.2559178867E-01  3.0474580422E-01
                       1.6000789864E-01  1.6511157473E-01  1.8024187237E-01
                       6.5584650706E-01  3.6570801879E-01  7.9226869668E-01
                       8.3999210136E-01  6.6511157473E-01  3.1975812763E-01
                       3.4415349294E-01  8.6570801879E-01  7.0773130332E-01
                       2.2312687792E-01  6.8553590319E-01  8.1600144462E-01
                       3.6767917182E-01  2.5464806282E-01  3.1632143704E-01
                       6.3232082818E-01  7.5464806282E-01  1.8367856296E-01
                       7.7687312208E-01  1.8553590319E-01  6.8399855538E-01
                      -1.9991536312E-02  6.9086206464E-01  1.1251650218E-01
                       2.5775662804E-01  9.5652375946E-01  1.1246437133E-01
                       8.3924626802E-01  8.4550006529E-01  4.9021163732E-01
                       8.1998201658E-01  5.4533138746E-01  7.8191644534E-01
                       5.5822747916E-01  9.1665148913E-01  8.3248888606E-01
                       1.0199915363E+00  1.9086206464E-01  3.8748349782E-01
                       7.4224337196E-01  4.5652375946E-01  3.8753562867E-01
                       1.6075373198E-01  3.4550006529E-01  1.0097883627E+00
                       4.4177252084E-01  4.1665148913E-01  6.6751111394E-01
                       1.8001798342E-01  4.5331387456E-02  7.1808355466E-01
                       1.0965057687E+00  5.8512770355E-01  4.2696079311E-01
                       6.0342732211E-01  3.2784212165E-01  2.4010054520E-02
                       3.9657267789E-01  8.2784212165E-01  4.7598994548E-01
                      -9.6505768673E-02  8.5127703548E-02  1.0730392069E+00







kptopt   1
ngkpt    2 2 2
nshiftk 1
shiftk 
0.5 0.5 0.5

ecut       30
pawecutdg  30
pawxcdev   0
ixc      -116133
nband    104
diemac   4
ecutsm   0.5

# First SCF run       
#irdwfk1   1
nstep    100
iscf     7
tolvrs   1.0E-20
ionmov   2
optcell  2
dilatmx  1.04
tolmxf   1e-10
ntime    150

# Printing flags
prtden    1
prteig    0
prtwf     1
prtposcar 0
prtcif    0
