#input for non-centrosymmetric orthorhombic HfO2

ndtset    1
autoparal 1

#Crystal Def.

nsym      1
ntypat   3
natom    26
typat    4*1 4*2 18*3
znucl    57 42 8

acell 3*1

rprim
  1.33245166478919E+01  3.03828760975509E-05 -1.93000263679378E-03
 -7.88530640160189E-05  1.35220231985987E+01 -6.87781568325954E-01
 -1.86620823954083E-03 -7.08795515521679E-01  1.35886226751312E+01

xred      
  8.76250595815406E-01  8.35451380463247E-01  8.95194034809985E-01
  3.76113355551633E-01  6.64822082603737E-01  1.05071388144817E-01
  1.30552369220986E-01  3.71458941492803E-01  6.81172682836623E-01
  6.30649620762169E-01  1.29189599619696E-01  3.18572053257123E-01
  1.68544072787739E-01  2.05378087535995E-01  2.02684916839722E-01
  6.68567889817434E-01  2.95158978121662E-01  7.97202472799764E-01
  8.38580532798559E-01  6.19986590575771E-01  3.10750134416080E-01
  3.38755362084649E-01  8.79789291975027E-01  6.89260101013249E-01
  3.16068383574066E-01  2.87572911141856E-01  4.01615019915383E-01
  8.16165388169868E-01  2.13046021390019E-01  5.98461995491238E-01
  6.81047626267621E-01  8.06296499605571E-01  1.95650494381802E-01
  1.80962332454023E-01  6.93859312489509E-01  8.05164904265601E-01
  9.56454963783598E-01  7.15196131445787E-02  1.96639312345094E-01
  4.56585735751605E-01  4.28927499238301E-01  8.01958196789512E-01
  2.62350951141550E-02  6.99957966017918E-01  1.61744754280562E-01
  5.26190900859230E-01  8.00229867119718E-01  8.38954221261943E-01
  3.32784502921693E-01  1.01641173078543E+00  1.35768666856933E-01
  1.32516644082889E-01  3.69018282365541E-02  7.50667135203640E-01
  8.32775393267621E-01  4.83822141181842E-01  8.65213100431931E-01
  6.32464066943124E-01  4.62764491342360E-01  2.48806136776501E-01
  1.88912595062215E-01  3.58912027943762E-01  1.02712388815022E+00
  8.37044943169016E-01  7.30173988198537E-01  5.39709382732267E-01
  3.36671275182883E-01  7.67922045044863E-01  4.60928233132697E-01
  6.87958582603433E-01  1.41056531272099E-01 -2.76372793448814E-02
  9.90531986568909E-01  4.13718205663177E-01  3.55811458732115E-01
  4.90615785341401E-01  1.08567236774888E+00  6.43512594548127E-01

kptopt   1
            ngfft          72      75      75

ngkpt    2 2 2
nshiftk 1
shiftk 
0.5 0.5 0.5

ecut       30
pawecutdg  30
pawxcdev   0
ixc      -116133
nband    104
diemac   4

ecutsm  0.5
nstep    100
iscf     7
tolvrs   1.0E-20
ionmov   2
optcell  2
dilatmx  1.04
tolmxf   1e-8
ntime    150
strtarget 0.0 -1.69946e-05 4*0.0 



# Printing flags
prtden    1
prteig    0
prtwf     1
prtposcar 0
prtcif    1
