#input for non-centrosymmetric orthorhombic HfO2

ndtset    1
autoparal 1

#Crystal Def.

nsym      1
ntypat   3
natom    26
typat    4*1 4*2 18*3
znucl    57 42 8

acell 3*1

rprim
  1.36074988083772E+01  6.80629836532801E-01 -1.79839268987118E-03
  7.01668842737791E-01  1.34581758489785E+01  6.16300732595176E-03
 -2.33538920337408E-03  5.33385215645969E-03  1.33391736769315E+01


xred      
  8.72821288461898E-01  8.18787688394504E-01  8.70187919188491E-01
  3.35711140859061E-01  6.05149781760353E-01  1.24218353819555E-01
  1.64088683789701E-01  3.94893277329262E-01  6.24262681460303E-01
  6.26146118119009E-01  1.80909227805058E-01  3.71359612922552E-01
  1.18667905289655E-01  1.89293718545219E-01  1.61568798213363E-01
  7.04321247987927E-01  2.98570030870455E-01  8.31545497597274E-01
  7.95827064949411E-01  7.01415544842843E-01  3.30766249609969E-01
  3.81290703680655E-01  8.10514348543625E-01  6.61427857445442E-01
  3.05020474702896E-01  3.03992598223761E-01  3.19042562453079E-01
  7.85086282603905E-01  9.85915263178467E-02  6.83479972237895E-01
  7.14460632155476E-01  9.01889386700578E-01  1.83475910495179E-01
  1.94681244554386E-01  6.96641255455861E-01  8.18891253731807E-01
  9.62297029255545E-01  2.50018908214167E-01  3.66978339932285E-01
  5.16254650219792E-01  3.67885576292317E-01  6.68745691812878E-01
 -1.66573652593571E-02  6.32235702936590E-01  1.67499568572144E-01
  5.37330191105930E-01  7.50085425072682E-01  8.67606612452101E-01
  2.28332834305463E-01  9.58212926275130E-01  1.64035504958204E-01
  2.72223116474937E-01  4.19056337964256E-02  6.62016478086150E-01
  8.59200566910148E-01  4.74125515335333E-01  8.11236110602539E-01
  6.40750172737755E-01  5.25963789902937E-01  3.11450143961223E-01
  2.00304793925622E-01  3.39092839415461E-01  9.74021896005483E-01
  9.28621687815948E-01  6.99610536580264E-01  5.42542453953838E-01
  3.00116578249318E-01  6.60818320192502E-01  4.74022191109090E-01
  5.72204670128217E-01  3.00202845768195E-01  4.35888513941772E-02
 -8.46644403893728E-02  1.44082719091123E-01  7.57961941100706E-03
  5.85562727346278E-01  8.55110876353590E-01  5.08449868570520E-01




kptopt   1
ngkpt    2 2 2
nshiftk 1
shiftk 
0.5 0.5 0.5

ecut       30
pawecutdg  30
pawxcdev   0
ixc      -116133
nband    104
diemac   4

ecutsm  0.5
nstep    100
iscf     7
tolvrs   1.0E-20
ionmov   2
optcell  2
dilatmx  1.04
tolmxf   1e-8
ntime    150
strtarget 0.0 -3.39893e-05 0.0 3*0.0



# Printing flags
prtden    1
prteig    0
prtwf     1
prtposcar 0
prtcif    1
