#input for non-centrosymmetric orthorhombic HfO2

ndtset    2

autoparal 1

#Crystal Def.
ntypat   3
natom    26
typat    4*1 4*2 18*3
znucl    57 42 8
acell 3*1

rprim
  1.36074995430210E+01  6.80630162387958E-01 -1.79872198035175E-03
  7.01669203400709E-01  1.34581758362453E+01  6.16311319013511E-03
 -2.33571810096419E-03  5.33397416261741E-03  1.33391736813756E+01

             xred      8.7282127606E-01  8.1878767755E-01  8.7018785536E-01
                       3.3571110145E-01  6.0514974659E-01  1.2421834457E-01
                       1.6408871381E-01  3.9489326495E-01  6.2426268838E-01
                       6.2614610220E-01  1.8090924226E-01  3.7135967747E-01
                       1.1866789291E-01  1.8929370124E-01  1.6156879411E-01
                       7.0432130705E-01  2.9857007185E-01  8.3154551745E-01
                       7.9582705206E-01  7.0141556318E-01  3.3076620646E-01
                       3.8129070413E-01  8.1051430347E-01  6.6142788245E-01
                       3.0502046977E-01  3.0399256469E-01  3.1904255802E-01
                       7.8508625100E-01  9.8591532569E-02  6.8347998950E-01
                       7.1446063759E-01  9.0188946986E-01  1.8347594465E-01
                       1.9468123241E-01  6.9664118924E-01  8.1889125391E-01
                       9.6229698821E-01  2.5001894893E-01  3.6697828325E-01
                       5.1625465179E-01  3.6788558176E-01  6.6874577370E-01
                      -1.6657476844E-02  6.3223561517E-01  1.6749946002E-01
                       5.3733017299E-01  7.5008546262E-01  8.6760668940E-01
                       2.2833273888E-01  9.5821287341E-01  1.6403557495E-01
                       2.7222307268E-01  4.1905568474E-02  6.6201643096E-01
                       8.5920062281E-01  4.7412553383E-01  8.1123596855E-01
                       6.4075012244E-01  5.2596384283E-01  3.1145025241E-01
                       2.0030486323E-01  3.3909275279E-01  9.7402186066E-01
                       9.2862174598E-01  6.9961064529E-01  5.4254235551E-01
                       3.0011663707E-01  6.6081825219E-01  4.7402219905E-01
                       5.7220483530E-01  3.0020299969E-01  4.3588932975E-02
                      -8.4664406959E-02  1.4408272307E-01  7.5795636848E-03
                       5.8556269197E-01  8.5511087252E-01  5.0844994256E-01
 
kptopt   1
            ngfft          72      75      75
ngkpt    2 2 2
nshiftk 1
shiftk 
0.5 0.5 0.5
ecut       30
ecutsm  0.5
pawecutdg  30
pawxcdev   0
ixc      -116133
nband    104
diemac   4

# First SCF run       
#irdwfk1   1
nstep1    100
iscf1     7
tolvrs1   1.0E-20

#Refinement using tolwfr
nstep2    250
getwfk2   -1
iscf2     7
tolwfr2   1.0E-20

# Printing flags
prtden    1
prteig    0
prtwf     1
prtposcar 0
prtcif    1
