#input for LaMoX

autoparal 1

#Crystal Def.
ntypat   3
natom    26
typat    4*1 4*2 18*3
znucl    57 42 8
acell 3*0.995 Angstrom

rprim 
7.1547  0.0000  0.0000
0.0000  7.1547  0.0000
0.0000  0.0000  7.1547

xred      
8.4496E-01   8.7200E-01   8.2939E-01
3.4496E-01   6.2800E-01   1.7061E-01
1.2760E-01   3.4427E-01   6.2450E-01
6.2760E-01   1.5573E-01   3.7550E-01
1.6872E-01   1.3511E-01   1.8199E-01
6.6872E-01   3.6489E-01   8.1801E-01
8.1009E-01   6.9130E-01   3.0563E-01
3.1009E-01   8.0870E-01   6.9437E-01
3.2580E-01   3.1389E-01   3.1791E-01
8.2580E-01   1.8611E-01   6.8209E-01
6.9288E-01   8.3062E-01   1.3480E-01
1.9288E-01   6.6938E-01   8.6520E-01
9.7661E-01   1.9442E-01   3.3661E-01
4.7661E-01   3.0558E-01   6.6339E-01
2.5205E-02   5.7471E-01   2.7327E-01
5.2520E-01   9.2529E-01   7.2673E-01
3.6353E-01   9.6740E-01   2.6131E-01
1.4658E-01  -9.5125E-03   6.5356E-01
8.6353E-01   5.3260E-01   7.3869E-01
6.4658E-01   5.0951E-01   3.4644E-01
1.7639E-01   2.7457E-01   9.7374E-01
8.1246E-01   8.5242E-01   4.9218E-01
3.1246E-01   6.4758E-01   5.0782E-01
6.7639E-01   2.2543E-01   2.6264E-02
5.4177E-02  -7.6797E-02   8.7195E-02
5.5418E-01   5.7680E-01   9.1280E-01

#chksymbreak 0
kptopt   1
ngkpt    2 2 2
nshiftk 1
shiftk
0.5 0.5 0.5

ngfft 72 72 72

ecutsm 0.5
ecut 30
ixc      -116133
nband    104
nstep    150
diemac   4
iscf     7
tolvrs   1.0E-20

ionmov  2
optcell 0
ntime   150
tolmxf  1e-8


# Printing flags
prtden    1
prteig    0
prtwf     1
prtposcar 0
prtcif    0

pawecutdg  30
pawxcdev   0
