#input for non-centrosymmetric orthorhombic HfO2

ndtset    2

autoparal 1

#Crystal Def.
ntypat   3
natom    26
typat    4*1 4*2 18*3
znucl    57 42 8
acell 3*1

rprim
  1.32992284021376E+01  0.00000000000000E+00  0.00000000000000E+00
  0.00000000000000E+00  1.36313883334124E+01  6.89062616250530E-01
  0.00000000000000E+00  7.19936934259600E-01  1.35492863847219E+01

             xred      8.7001199945E-01  8.7253975440E-01  8.1874260031E-01
                       3.7001199945E-01  6.2746024560E-01  1.8125739969E-01
                       1.2433200739E-01  3.3487417512E-01  6.0464815353E-01
                       6.2433200739E-01  1.6512582488E-01  3.9535184647E-01
                       1.6151110628E-01  1.1920253387E-01  1.8926659198E-01
                       6.6151110628E-01  3.8079746613E-01  8.1073340802E-01
                       8.3104505430E-01  7.0501033238E-01  2.9826822307E-01
                       3.3104505430E-01  7.9498966762E-01  7.0173177693E-01
                       3.1939413407E-01  3.0584258050E-01  3.0326782959E-01
                       8.1939413407E-01  1.9415741950E-01  6.9673217041E-01
                       6.8361009346E-01  7.8486012570E-01  9.8199228658E-02
                       1.8361009346E-01  7.1513987430E-01  9.0180077134E-01
                       9.7396219323E-01  2.0005109431E-01  3.3925252500E-01
                       4.7396219323E-01  2.9994890569E-01  6.6074747500E-01
                       4.3364624861E-02  5.7228010446E-01  3.0102655281E-01
                       5.4336462486E-01  9.2771989554E-01  6.9897344719E-01
                       3.6781856576E-01  9.6345602994E-01  2.5031147730E-01
                       1.6756290634E-01 -1.7208482325E-02  6.3313645826E-01
                       8.6781856576E-01  5.3654397006E-01  7.4968852270E-01
                       6.6756290634E-01  5.1720848233E-01  3.6686354174E-01
                       1.6321124959E-01  2.2858460826E-01  9.5959218485E-01
                       8.1113284991E-01  8.5873114097E-01  4.7327668847E-01
                       3.1113284991E-01  6.4126885903E-01  5.2672331153E-01
                       6.6321124959E-01  2.7141539174E-01  4.0407815147E-02
                       8.0432153685E-03 -8.4505452009E-02  1.4453958205E-01
                       5.0804321537E-01  5.8450545201E-01  8.5546041795E-01
 
kptopt   1
            ngfft          72      75      75
ngkpt    2 2 2
nshiftk 1
shiftk 
0.5 0.5 0.5
ecut       30
ecutsm  0.5
pawecutdg  30
pawxcdev   0
ixc      -116133
nband    104
diemac   4

# First SCF run       
#irdwfk1   1
nstep1    100
iscf1     7
tolvrs1   1.0E-20

#Refinement using tolwfr
nstep2    250
getwfk2   -1
iscf2     7
tolwfr2   1.0E-20

# Printing flags
prtden    1
prteig    0
prtwf     1
prtposcar 0
prtcif    1
