#input for KTaO3

ndtset    3

autoparal 1

#Crystal Def.
ntypat   3
natom    26
typat    4*1 4*2 18*3
znucl    57 42 8
acell 3*1


rprim
  1.32691406205929E+01 -3.01253621028766E-04 -2.64758093183809E-03
 -3.79724231937243E-04  1.35871109444648E+01 -6.95269505764319E-01
 -2.57419773076923E-03 -7.19754740896753E-01  1.35877932832561E+01

             xred      8.7598403931E-01  8.3503199782E-01  8.9552884955E-01
                       3.7581162464E-01  6.6517762673E-01  1.0470886123E-01
                       1.3068048610E-01  3.7180627972E-01  6.8120945432E-01
                       6.3078464970E-01  1.2891330775E-01  3.1846341166E-01
                       1.6885334953E-01  2.0554207286E-01  2.0234101957E-01
                       6.6884774114E-01  2.9504341111E-01  7.9770336073E-01
                       8.3822607548E-01  6.1965301209E-01  3.1078881519E-01
                       3.3841769285E-01  8.8013431826E-01  6.8909049424E-01
                       3.1665352256E-01  2.8650224925E-01  4.0184994437E-01
                       8.1651593523E-01  2.1461982791E-01  5.9816614968E-01
                       6.8070321535E-01  8.0625451969E-01  1.9651321130E-01
                       1.8055980118E-01  6.9386182734E-01  8.0421940753E-01
                       9.5649866223E-01  7.1426901810E-02  1.9739253197E-01
                       4.5660246283E-01  4.2904198649E-01  8.0158457109E-01
                       2.6630396436E-02  6.9997454651E-01  1.6183230985E-01
                       5.2649050248E-01  8.0031466883E-01  8.3889128021E-01
                       3.3325483140E-01  1.0171511927E+00  1.3506828909E-01
                       1.3152658454E-01  3.6236011632E-02  7.5089354379E-01
                       8.3325629321E-01  4.8301739643E-01  8.6630161806E-01
                       6.3159614917E-01  4.6330312552E-01  2.4822883222E-01
                       1.8920586021E-01  3.5838828373E-01  1.0269097895E+00
                       8.3642244530E-01  7.2860567170E-01  5.4008857814E-01
                       3.3643435574E-01  7.6921716714E-01  4.6053076752E-01
                       6.8835254875E-01  1.4126787293E-01 -2.7573191190E-02
                       9.9087213405E-01  4.1419258012E-01  3.5507224915E-01
                       4.9081864053E-01  1.0853221439E+00  6.4419585125E-01
 
nshiftk 1
shiftk 
0.5 0.5 0.5
#chksymbreak 0
kptopt   1
ngkpt    2 2 2

ecut 30
ixc      -116133
nband    104
nstep    150
diemac   4


# Data set 1 - Refinement of already computed GS WFs       
irdwfk1   0
irdden1   0
iscf1     7
tolvrs1   1.0E-20
nstep1    100

# Data Set 2: Response Function calculation : d/dk 
rfelfd2    2 
rfdir2     1    1    1 

nqpt2      1 
qpt2       0.0  0.0  0.0  

getwfk2   -1 
getden2   -1 

kptopt2    2 

iscf2     -3 

tolwfr2    1.0d-22 

# Data set 3 : Response Function calculation - electric field perturbation, phonons, and strain

rfphon3   1            # Will consider phonon-type perturbation 
rfelfd3   3            # Electric Field
rfstrs3   3            # Strains

rfdir3    1   1   1    # Along all reduced coordinate axis 
rfatpol3  1   26        # All the atoms will be displaced 

nqpt3     1            # One wavevector is to be considered 
qpt3      0.0 0.0 0.0  # This wavevector is q=0 (Gamma) 

kptopt3   2            # Automatic generation of k points, taking 
                       # into account the time-reversal symmetry only 

getwfk3   1            # Read the ground-state wavefunctions 
getddk3   2
                                              
tolvrs3   1.0d-20      # SCF stopping criterion 
                       



# Printing flags
prtden    1
prteig    0
prtwf     1
prtposcar 0
prtcif    0

ecutsm  0.5
            ngfft          72      75      75
pawecutdg  30
pawxcdev   0
