#input for non-centrosymmetric orthorhombic HfO2


autoparal 1

#Crystal Def.
ntypat   3
natom    26
typat    4*1 4*2 18*3
znucl    57 42 8
acell 3*1

rprim
  1.35693311845882E+01  1.22902270378220E-02  7.04094729229899E-01
  1.21134977470012E-02  1.33121388225141E+01 -1.76251210194062E-03
  6.97207983689227E-01 -1.72409051354460E-03  1.35746040370494E+01

             xred      8.1817995401E-01  8.6874014332E-01  8.7061044253E-01
                       3.9528358797E-01  6.2393293540E-01  1.6454219081E-01
                       1.8084539430E-01  3.7031155494E-01  6.2701176303E-01
                       6.0496343213E-01  1.2419719482E-01  3.3485353841E-01
                       1.8926957832E-01  1.6124722519E-01  1.1960575420E-01
                       7.0231291925E-01  3.3082391030E-01  7.9481205976E-01
                       8.1039527895E-01  6.6163053274E-01  3.8050530268E-01
                       2.9784638587E-01  8.3137372463E-01  7.0451255413E-01
                       3.0530386439E-01  3.1935236302E-01  3.0562149286E-01
                       9.0192411493E-01  1.8357805028E-01  7.1297748331E-01
                       6.9683409825E-01  8.1908049777E-01  1.9357624271E-01
                       9.8697886418E-02  6.8382732648E-01  7.8510368573E-01
                       9.6089496956E-01  1.6450514249E-01  2.3163759329E-01
                       5.2677905172E-01  3.1132789543E-01  6.4140820441E-01
                       4.0250536565E-02  6.6264353816E-01  2.7196033323E-01
                       4.7269676800E-01  8.1108108930E-01  8.5877419721E-01
                       3.3933248602E-01  9.7377956535E-01  2.0013055409E-01
                       3.0096780817E-01  4.3951656464E-02  5.7213175367E-01
                       6.9777905962E-01  5.4261076508E-01  9.2895945698E-01
                       6.6162987664E-01  4.7381959351E-01  3.0029328658E-01
                       2.5010248747E-01  3.6731618043E-01  9.6309990734E-01
                       7.4808925050E-01  8.6819983726E-01  5.3687741211E-01
                       3.6646988200E-01  6.6799924356E-01  5.1597549522E-01
                       6.3493281634E-01  1.6653241940E-01 -1.7117394207E-02
                       1.4335869576E-01  8.2644265221E-03 -8.4390537402E-02
                       8.5485981686E-01  5.0987318818E-01  5.8652722732E-01
 
kptopt   1
ngfft          72      75      75
ngkpt    2 2 2
nshiftk 1
shiftk 
0.5 0.5 0.5
ecut       30
ecutsm   0.5
pawecutdg  30
pawxcdev   0
ixc      -116133
nband    104
diemac   4

# First SCF run       
#irdwfk1   1
nstep    1
iscf     7
tolvrs   1.0E-20


# Printing flags
prtden    1
prteig    0
prtwf     1
prtposcar 0
prtcif    1
