#input for non-centrosymmetric orthorhombic HfO2

ndtset    1
autoparal 1

#Crystal Def.

nsym      1
ntypat   3
natom    26
typat    4*1 4*2 18*3
znucl    57 42 8

acell 3*1

rprim
  1.32531726993504E+01 -7.75942152941655E-02 -3.68025396771451E-01
 -5.86943477980633E-02  1.36359118582591E+01 -5.36768069437637E-01
 -3.69688818869800E-01 -5.61959407344317E-01  1.36117176720300E+01

xred      
  8.77123131565786E-01  8.42383239157348E-01  8.90684493396651E-01
  3.66498372559886E-01  6.75102839169583E-01  1.20806903641805E-01
  1.20369659747437E-01  4.14500062337059E-01  6.61002895146897E-01
  6.52599814035832E-01  1.47447672108766E-01  3.10419358151520E-01
  1.73039709588088E-01  2.07483097956102E-01  1.97052951768217E-01
  6.70806606075870E-01  3.03912423118296E-01  7.95693003459001E-01
  8.33573245170479E-01  6.18433225853071E-01  3.10030209082175E-01
  3.43440169991223E-01  8.80796625824576E-01  6.90472870942633E-01
  3.12256029315535E-01  2.98865762561551E-01  4.01737376050364E-01
  8.20905594700221E-01  2.30960453683151E-01  6.06908817255775E-01
  6.79294631983749E-01  8.15821812652910E-01  2.32963315670278E-01
  1.77555342136964E-01  7.03244585370706E-01  8.32208100258298E-01
  9.64715680090014E-01  5.95037695654406E-02  1.78234820539861E-01
  4.51127569111117E-01  4.15085552298381E-01  7.67880758955746E-01
  1.90720646593146E-02  6.99597572568713E-01  1.70379486664432E-01
  5.27597683160189E-01  7.96682863074696E-01  8.57314276793794E-01
  3.42489454701459E-01  1.02387543569571E+00  1.48563295119447E-01
  1.45139705053057E-01  3.63098474096521E-02  7.37391161679667E-01
  8.24697061099982E-01  4.93097798976260E-01  8.80390784659251E-01
  6.18568311632061E-01  4.69512676535959E-01  2.37110101719162E-01
  1.94529335791246E-01  3.60037256884342E-01  1.01945198251958E+00
  8.66945687428921E-01  6.84044392087436E-01  5.52462676561292E-01
  3.09098700837629E-01  7.32475377209493E-01  4.84088791095889E-01
  6.80828392058437E-01  1.43228069823133E-01 -3.19594022807433E-02
  9.70085982863838E-01  3.90840734245390E-01  3.29426401117638E-01
  5.07633064641675E-01  1.05679385383179E+00  6.19274570031104E-01

kptopt   1
            ngfft          72      75      75

ngkpt    2 2 2
nshiftk 1
shiftk 
0.5 0.5 0.5

ecut       30
pawecutdg  30
pawxcdev   0
ixc      -116133
nband    104
diemac   4

ecutsm  0.5
nstep    100
iscf     7
tolvrs   1.0E-20
ionmov   2
optcell  2
dilatmx  1.04
tolmxf   1e-8
ntime    250
strtarget 4*0.0 -3.39893e-05 0.0 



# Printing flags
prtden    1
prteig    0
prtwf     1
prtposcar 0
prtcif    1
