#input for non-centrosymmetric orthorhombic HfO2

ndtset    2

autoparal 1

#Crystal Def.
ntypat   3
natom    26
typat    4*1 4*2 18*3
znucl    57 42 8
acell 3*1

rprim
  1.36006682925520E+01 -7.07432131322718E-01  3.04008044620983E-03
 -7.31346914661122E-01  1.36107956695058E+01 -2.10235419783801E-03
  1.76680194764535E-03 -1.69618733633319E-03  1.32187252510224E+01

             xred      8.3473926230E-01  8.9581714071E-01  8.7592678783E-01
                       3.7129301846E-01  6.8120459342E-01  1.3119316189E-01
                       1.3035384676E-01  3.1845406961E-01  6.3183112532E-01
                       6.6572364385E-01  1.0454540286E-01  3.7583458962E-01
                       2.0599623714E-01  2.0198009799E-01  1.6904102159E-01
                       6.2016004898E-01  3.1095816647E-01  8.3757736818E-01
                       8.7993258836E-01  6.8907414036E-01  3.3813365663E-01
                       2.9419552799E-01  7.9774351215E-01  6.6914240838E-01
                       2.8668487666E-01  4.0180008301E-01  3.1673901953E-01
                       8.0701071970E-01  1.9738457207E-01  6.8048928561E-01
                       6.9354198548E-01  8.0390755806E-01  1.8036606946E-01
                       2.1364151359E-01  5.9851979609E-01  8.1759514277E-01
                       1.0178649787E+00  1.3505973364E-01  3.3437797800E-01
                       4.6460674639E-01  2.4800146201E-01  6.2971916299E-01
                       3.5927497896E-02  7.5183372268E-01  1.3077120840E-01
                       4.8207701955E-01  8.6628152701E-01  8.3406994617E-01
                       3.5848304879E-01  1.0269997192E+00  1.8988325259E-01
                       1.4159854598E-01 -2.7189397460E-02  6.8806390170E-01
                       7.2862676322E-01  5.4010652376E-01  8.3628898454E-01
                       7.6961035206E-01  4.6069985286E-01  3.3535310333E-01
                       7.0418571616E-02  1.9616369925E-01  9.5688229505E-01
                       8.0022039703E-01  8.3855468696E-01  5.2709908525E-01
                       4.2930443387E-01  8.0112121120E-01  4.5697475625E-01
                       6.9948711966E-01  1.6227967371E-01  2.6998607912E-02
                       4.1322039544E-01  3.5431754753E-01  9.8912194104E-01
                       1.0852808604E+00  6.4438090483E-01  4.9052613998E-01
 
kptopt   1
            ngfft          72      75      75
ngkpt    2 2 2
nshiftk 1
shiftk 
0.5 0.5 0.5
ecut       30
ecutsm  0.5
pawecutdg  30
pawxcdev   0
ixc      -116133
nband    104
diemac   4

# First SCF run       
#irdwfk1   1
nstep1    100
iscf1     7
tolvrs1   1.0E-20

#Refinement using tolwfr
nstep2    250
getwfk2   -1
iscf2     7
tolwfr2   1.0E-20

# Printing flags
prtden    1
prteig    0
prtwf     1
prtposcar 0
prtcif    1
