#input for non-centrosymmetric orthorhombic HfO2

ndtset    1
autoparal 1

#Crystal Def.

nsym      1
ntypat   3
natom    26
typat    4*1 4*2 18*3
znucl    57 42 8

acell 3*1

rprim
  1.33571696532080E+01  2.86101702380829E-04 -1.57627419818489E-03
  1.63372950667437E-04  1.35614648191293E+01 -6.86887139594460E-01
 -1.52775128509527E-03 -7.11688965152539E-01  1.35550503082905E+01

xred      
  8.76207909164664E-01  8.35243882096966E-01  8.95239064379705E-01
  3.75976628183320E-01  6.64985700521914E-01  1.05054947376222E-01
  1.29939355183417E-01  3.72323475868106E-01  6.81641385541326E-01
  6.29920112225972E-01  1.28352570049761E-01  3.18078595991288E-01
  1.68520110530414E-01  2.05294473412693E-01  2.02744307602506E-01
  6.68637233588596E-01  2.95328798697520E-01  7.97218721657252E-01
  8.38657710932333E-01  6.19522770843160E-01  3.10701494473578E-01
  3.38962215052717E-01  8.80282837362697E-01  6.89255711062772E-01
  3.15649902862628E-01  2.86567339082800E-01  4.02337413127505E-01
  8.15710681100200E-01  2.14430445191828E-01  5.97653443307051E-01
  6.81096002456400E-01  8.05928841995958E-01  1.95752480429472E-01
  1.81046731349716E-01  6.94182506553874E-01  8.05052886092611E-01
  9.56458172332754E-01  7.25565159237148E-02  1.97256799320660E-01
  4.56674739358513E-01  4.27921649849086E-01  8.01349735915934E-01
  2.56992490043434E-02  7.00216078826451E-01  1.61415370456925E-01
  5.25669184653620E-01  8.00073265684091E-01  8.39318705027458E-01
  3.31968093595469E-01  1.01656917466022E+00  1.35288829014012E-01
  1.33203629387899E-01  3.69656852274866E-02  7.50202648206769E-01
  8.32083814624285E-01  4.83552902707312E-01  8.66089719550367E-01
  6.33208570103021E-01  4.62563304476543E-01  2.49120621987715E-01
  1.89451075757153E-01  3.59138381025535E-01  1.02732382592686E+00
  8.36918940019594E-01  7.29347247188925E-01  5.40304633710322E-01
  3.36929940945866E-01  7.68492925982247E-01  4.60393829805710E-01
  6.88356793952270E-01  1.40628466554370E-01 -2.79874718257137E-02
  9.91544979879905E-01  4.14860500465297E-01  3.55786228531568E-01
  4.91508223710843E-01  1.08467025970440E+00  6.43406073397975E-01

kptopt   1
            ngfft          72      75      75

ngkpt    2 2 2
nshiftk 1
shiftk 
0.5 0.5 0.5

ecut       30
pawecutdg  30
pawxcdev   0
ixc      -116133
nband    104
diemac   4

ecutsm  0.5
nstep    100
iscf     7
tolvrs   1.0E-20
ionmov   2
optcell  2
dilatmx  1.04
tolmxf   1e-8
ntime    150
strtarget 1.69946e-05 5*0.0 



# Printing flags
prtden    1
prteig    0
prtwf     1
prtposcar 0
prtcif    1
