#input for KTaO3

ndtset    3

autoparal 1

#Crystal Def.
ntypat   3
natom    26
typat    4*1 4*2 18*3
znucl    57 42 8
acell 3*1


rprim
  1.36293015818609E+01  7.00832820586088E-01 -2.10684113209386E-03
  7.18182801413639E-01  1.35520680034883E+01  9.67832303067196E-03
 -2.81794443312380E-03  8.90226665117191E-03  1.32977480867943E+01

             xred      8.7106127994E-01  8.1819931054E-01  8.6886602084E-01
                       3.3448360905E-01  6.0473704113E-01  1.2430084572E-01
                       1.6510270243E-01  3.9546332194E-01  6.2419783178E-01
                       6.2697105949E-01  1.8116295546E-01  3.7046918407E-01
                       1.1921555681E-01  1.8923261192E-01  1.6161777510E-01
                       7.0529067424E-01  2.9814402854E-01  8.3126395919E-01
                       7.9472235329E-01  7.0177040797E-01  3.3053373216E-01
                       3.8067996019E-01  8.1056033070E-01  6.6177615729E-01
                       3.0580010152E-01  3.0394795255E-01  3.1950776403E-01
                       7.8512964771E-01  9.8528510401E-02  6.8335399276E-01
                       7.1402445055E-01  9.0209274161E-01  1.8359869796E-01
                       1.9363234341E-01  6.9740425712E-01  8.1924324410E-01
                       9.6335625784E-01  2.5086717777E-01  3.6750279078E-01
                       5.1718673941E-01  3.6693610419E-01  6.6797324931E-01
                      -1.7714058386E-02  6.3380080297E-01  1.6654174940E-01
                       5.3599108392E-01  7.4894597658E-01  8.6881938552E-01
                       2.2952693149E-01  9.5997607599E-01  1.6506062694E-01
                       2.7208986055E-01  4.0618468566E-02  6.6240349751E-01
                       8.5884957413E-01  4.7317036080E-01  8.1091016483E-01
                       6.4106517407E-01  5.2681206920E-01  3.1074989426E-01
                       2.0005249580E-01  3.3924984471E-01  9.7389401079E-01
                       9.2855515640E-01  6.9836949280E-01  5.4238561545E-01
                       3.0052493314E-01  6.6102764673E-01  4.7401597911E-01
                       5.7267358998E-01  3.0060366517E-01  4.3565297929E-02
                      -8.3948925038E-02  1.4368634733E-01  7.8862982634E-03
                       5.8567744805E-01  8.5469249734E-01  5.0956223490E-01
 
nshiftk 1
shiftk 
0.5 0.5 0.5
#chksymbreak 0
kptopt   1
ngkpt    2 2 2

ecut 30
ixc      -116133
nband    104
nstep    150
diemac   4


# Data set 1 - Refinement of already computed GS WFs       
irdwfk1   0
irdden1   0
iscf1     7
tolvrs1   1.0E-20
nstep1    100

# Data Set 2: Response Function calculation : d/dk 
rfelfd2    2 
rfdir2     1    1    1 

nqpt2      1 
qpt2       0.0  0.0  0.0  

getwfk2   -1 
getden2   -1 

kptopt2    2 

iscf2     -3 

tolwfr2    1.0d-22 

# Data set 3 : Response Function calculation - electric field perturbation, phonons, and strain

rfphon3   1            # Will consider phonon-type perturbation 
rfelfd3   3            # Electric Field
rfstrs3   3            # Strains

rfdir3    1   1   1    # Along all reduced coordinate axis 
rfatpol3  1   26        # All the atoms will be displaced 

nqpt3     1            # One wavevector is to be considered 
qpt3      0.0 0.0 0.0  # This wavevector is q=0 (Gamma) 

kptopt3   2            # Automatic generation of k points, taking 
                       # into account the time-reversal symmetry only 

getwfk3   1            # Read the ground-state wavefunctions 
getddk3   2
                                              
tolvrs3   1.0d-20      # SCF stopping criterion 
                       



# Printing flags
prtden    1
prteig    0
prtwf     1
prtposcar 0
prtcif    0

ecutsm  0.5
            ngfft          72      75      75
pawecutdg  30
pawxcdev   0
