#input for KTaO3

ndtset    3

autoparal 1

#Crystal Def.
ntypat   3
natom    26
typat    4*1 4*2 18*3
znucl    57 42 8
acell 3*1


rprim
  1.32747353006986E+01  4.51188643961163E-04 -7.91276871681652E-03
 -9.56775488852347E-05  1.35988670838819E+01  9.66179997971083E-01
 -8.04769908432107E-03  9.91006810043009E-01  1.36315265001005E+01

             xred      8.6688159468E-01  8.6236849504E-01  8.1430797914E-01
                       3.6541292676E-01  6.3966985371E-01  1.8643323725E-01
                       1.2235083498E-01  3.3096126344E-01  6.0381486107E-01
                       6.2268644683E-01  1.6967092843E-01  3.9625369783E-01
                       1.6290116047E-01  1.2257660939E-01  1.9040631481E-01
                       6.6208178987E-01  3.7775243972E-01  8.0974772879E-01
                       8.3071460159E-01  7.0962621901E-01  2.9891010567E-01
                       3.3080901209E-01  7.9083127321E-01  7.0106774809E-01
                       3.1874205605E-01  3.1090749815E-01  3.0034961470E-01
                       8.1885668812E-01  1.9000684701E-01  6.9780614637E-01
                       6.8466160326E-01  7.9370935297E-01  9.6497614290E-02
                       1.8434884387E-01  7.0690765807E-01  9.0289239690E-01
                       9.7317732170E-01  1.9772366333E-01  3.3523285144E-01
                       4.7290939242E-01  3.0156088043E-01  6.6390453757E-01
                       3.9531511304E-02  5.6925333147E-01  3.0897050934E-01
                       5.4080736166E-01  9.2904208410E-01  6.9190687867E-01
                       3.7193931649E-01  9.6802020361E-01  2.5864939763E-01
                       1.6417359549E-01 -2.0024489977E-02  6.3313785953E-01
                       8.7082175741E-01  5.3229225209E-01  7.4263062663E-01
                       6.6294013560E-01  5.2124714423E-01  3.6642670798E-01
                       1.6636828198E-01  2.3496538827E-01  9.5961385050E-01
                       8.0884986553E-01  8.5982940666E-01  4.7011990359E-01
                       3.0825292180E-01  6.4038873652E-01  5.3008618493E-01
                       6.6739251641E-01  2.6265756669E-01  3.9423853676E-02
                       1.7183706122E-02 -8.6897210518E-02  1.4524199768E-01
                       5.1520475751E-01  5.8495260494E-01  8.5616739591E-01
 
nshiftk 1
shiftk 
0.5 0.5 0.5
#chksymbreak 0
kptopt   1
ngkpt    2 2 2

ecut 30
ixc      -116133
nband    104
nstep    150
diemac   4


# Data set 1 - Refinement of already computed GS WFs       
irdwfk1   0
irdden1   0
iscf1     7
tolvrs1   1.0E-20
nstep1    100

# Data Set 2: Response Function calculation : d/dk 
rfelfd2    2 
rfdir2     1    1    1 

nqpt2      1 
qpt2       0.0  0.0  0.0  

getwfk2   -1 
getden2   -1 

kptopt2    2 

iscf2     -3 

tolwfr2    1.0d-22 

# Data set 3 : Response Function calculation - electric field perturbation, phonons, and strain

rfphon3   1            # Will consider phonon-type perturbation 
rfelfd3   3            # Electric Field
rfstrs3   3            # Strains

rfdir3    1   1   1    # Along all reduced coordinate axis 
rfatpol3  1   26        # All the atoms will be displaced 

nqpt3     1            # One wavevector is to be considered 
qpt3      0.0 0.0 0.0  # This wavevector is q=0 (Gamma) 

kptopt3   2            # Automatic generation of k points, taking 
                       # into account the time-reversal symmetry only 

getwfk3   1            # Read the ground-state wavefunctions 
getddk3   2
                                              
tolvrs3   1.0d-20      # SCF stopping criterion 
                       



# Printing flags
prtden    1
prteig    0
prtwf     1
prtposcar 0
prtcif    0

ecutsm  0.5
            ngfft          72      75      75
pawecutdg  30
pawxcdev   0
