#input for non-centrosymmetric orthorhombic HfO2

ndtset    2

autoparal 1

#Crystal Def.
ntypat   3
natom    26
typat    4*1 4*2 18*3
znucl    57 42 8
acell 3*1

rprim
  1.35158937488799E+01  3.38574517919099E-01 -8.48390081699794E-02
  3.36369579925309E-01  1.36465675114119E+01  3.53539419146642E-01
 -8.32692951919053E-02  3.56073299662598E-01  1.33971231581448E+01

             xred      8.5238899619E-01  9.1213249823E-01  8.4436077599E-01
                       3.3984505880E-01  6.6649992822E-01  1.7166971005E-01
                       1.2819139811E-01  3.4031873558E-01  5.9915640426E-01
                       6.4881093162E-01  1.6473178147E-01  3.4004995651E-01
                       1.9001965343E-01  1.4194240179E-01  1.5941203855E-01
                       6.6305490882E-01  3.6184218608E-01  7.9269700733E-01
                       8.0054162931E-01  6.8608565804E-01  3.8159458392E-01
                       3.1562300104E-01  8.0039278837E-01  7.0737384556E-01
                       3.2282878432E-01  3.3039216894E-01  2.8279571831E-01
                       8.3854687080E-01  1.9297759532E-01  6.5402726855E-01
                       7.5664544028E-01  8.2213153023E-01  1.7008176138E-01
                       1.6717745973E-01  6.4758047182E-01  8.3344770464E-01
                       9.9331742522E-01  1.9126170213E-01  3.0749966845E-01
                       4.8008217312E-01  2.8781289697E-01  6.4448092114E-01
                       4.3644509076E-02  6.1964824346E-01  3.7617206131E-01
                       4.9348635486E-01  8.7386241510E-01  8.5677068062E-01
                       3.9742301288E-01  9.8688003429E-01  2.4558652793E-01
                       1.6447779528E-01 -6.7930361329E-03  6.3539885669E-01
                       8.1872813234E-01  5.4169560274E-01  6.8736474709E-01
                       6.6208959801E-01  4.9818314286E-01  3.2903752902E-01
                       1.6996728225E-01  2.6244810756E-01  9.3646336248E-01
                       7.3271376929E-01  8.7277750644E-01  5.3026921923E-01
                       3.9574936125E-01  6.8024539636E-01  5.1208051898E-01
                       7.2099657673E-01  1.9316723689E-01 -8.7181378395E-03
                       1.0664557933E-01 -8.2951709546E-02  7.2803228475E-02
                       5.3300429786E-01  5.1473471675E-01  9.3812404138E-01
 
kptopt   1
            ngfft          72      75      75
ngkpt    2 2 2
nshiftk 1
shiftk 
0.5 0.5 0.5
ecut       30
ecutsm  0.5
pawecutdg  30
pawxcdev   0
ixc      -116133
nband    104
diemac   4

# First SCF run       
#irdwfk1   1
nstep1    100
iscf1     7
tolvrs1   1.0E-20

#Refinement using tolwfr
nstep2    250
getwfk2   -1
iscf2     7
tolwfr2   1.0E-20

# Printing flags
prtden    1
prteig    0
prtwf     1
prtposcar 0
prtcif    1
