#input for KTaO3

ndtset    3

autoparal 1

#Crystal Def.
ntypat   3
natom    26
typat    4*1 4*2 18*3
znucl    57 42 8
acell 3*1


rprim
  1.35408780739928E+01 -7.16594449569233E-01  3.77149590999635E-03
 -7.32565995611319E-01  1.37032157888327E+01  5.36445165013033E-03
  2.82989203260010E-03  5.69756378981024E-03  1.32779399716733E+01

             xred      8.3390465625E-01  8.9579375899E-01  8.7631255926E-01
                       3.6896755711E-01  6.8228355659E-01  1.3238964855E-01
                       1.3080965445E-01  3.1807975089E-01  6.3174217751E-01
                       6.6608275045E-01  1.0428699526E-01  3.7625087568E-01
                       2.0666353586E-01  2.0353886785E-01  1.6861546537E-01
                       6.2112327635E-01  3.1066240052E-01  8.3813084814E-01
                       8.7889764082E-01  6.8925741064E-01  3.3855189689E-01
                       2.9343505068E-01  7.9652202802E-01  6.6911568214E-01
                       2.8757572304E-01  4.0222870088E-01  3.1568928571E-01
                       8.0737754109E-01  1.9529834646E-01  6.8051766177E-01
                       6.9246039027E-01  8.0423480900E-01  1.8059873663E-01
                       2.1230644438E-01  5.9771156650E-01  8.1621309210E-01
                       1.0175440852E+00  1.3736608637E-01  3.3369965840E-01
                       4.6440412384E-01  2.4818111570E-01  6.3123025446E-01
                       3.5523253039E-02  7.5219268641E-01  1.3139292061E-01
                       4.8193455195E-01  8.6351196732E-01  8.3437080805E-01
                       3.5879265635E-01  1.0289803906E+00  1.9007463008E-01
                       1.4100880808E-01 -2.9040376092E-02  6.8878250658E-01
                       7.3242475892E-01  5.3738065260E-01  8.3514787416E-01
                       7.6786475361E-01  4.6241529668E-01  3.3618231831E-01
                       7.1933072727E-02  1.9553573282E-01  9.5637367040E-01
                       8.0028972126E-01  8.3835199602E-01  5.2643012926E-01
                       4.2869421192E-01  8.0364029532E-01  4.5719872707E-01
                       6.9977344966E-01  1.6169505414E-01  2.6396979167E-02
                       4.1447710320E-01  3.5583789817E-01  9.8930658856E-01
                       1.0857312293E+00  6.4405301235E-01  4.8928500515E-01
 
nshiftk 1
shiftk 
0.5 0.5 0.5
#chksymbreak 0
kptopt   1
ngkpt    2 2 2

ecut 30
ixc      -116133
nband    104
nstep    150
diemac   4


# Data set 1 - Refinement of already computed GS WFs       
irdwfk1   0
irdden1   0
iscf1     7
tolvrs1   1.0E-20
nstep1    100

# Data Set 2: Response Function calculation : d/dk 
rfelfd2    2 
rfdir2     1    1    1 

nqpt2      1 
qpt2       0.0  0.0  0.0  

getwfk2   -1 
getden2   -1 

kptopt2    2 

iscf2     -3 

tolwfr2    1.0d-22 

# Data set 3 : Response Function calculation - electric field perturbation, phonons, and strain

rfphon3   1            # Will consider phonon-type perturbation 
rfelfd3   3            # Electric Field
rfstrs3   3            # Strains

rfdir3    1   1   1    # Along all reduced coordinate axis 
rfatpol3  1   26        # All the atoms will be displaced 

nqpt3     1            # One wavevector is to be considered 
qpt3      0.0 0.0 0.0  # This wavevector is q=0 (Gamma) 

kptopt3   2            # Automatic generation of k points, taking 
                       # into account the time-reversal symmetry only 

getwfk3   1            # Read the ground-state wavefunctions 
getddk3   2
                                              
tolvrs3   1.0d-20      # SCF stopping criterion 
                       



# Printing flags
prtden    1
prteig    0
prtwf     1
prtposcar 0
prtcif    0

ecutsm  0.5
            ngfft          72      75      75
pawecutdg  30
pawxcdev   0
