#input for KTaO3

ndtset    3

autoparal 1

#Crystal Def.
ntypat   3
natom    26
typat    4*1 4*2 18*3
znucl    57 42 8
acell 3*1


rprim
  1.35750020158535E+01  6.97658302385821E-01  7.31872452449613E-02
  7.11292206922008E-01  1.35701193552665E+01 -5.01747973662154E-03
  7.19693242369207E-02 -9.42776509334615E-03  1.33103507809042E+01

             xred      8.7096945427E-01  8.1879087837E-01  8.6976357003E-01
                       3.3492804310E-01  6.0512892514E-01  1.2393366725E-01
                       1.6499421183E-01  3.9550516403E-01  6.2423964571E-01
                       6.2817028491E-01  1.8121938911E-01  3.6910436833E-01
                       1.1946228252E-01  1.8947894460E-01  1.6111905046E-01
                       7.0501103141E-01  2.9765844210E-01  8.3073543820E-01
                       7.9439789938E-01  7.0166167096E-01  3.3140117913E-01
                       3.7973796033E-01  8.1091506751E-01  6.6185090309E-01
                       3.0590966497E-01  3.0392560818E-01  3.1921821204E-01
                       7.8689753701E-01  9.7981483226E-02  6.8366755177E-01
                       7.1349282631E-01  9.0060678519E-01  1.8339190569E-01
                       1.9327882759E-01  6.9618433298E-01  8.1933751874E-01
                       9.6232274283E-01  2.5169151064E-01  3.6816969596E-01
                       5.1786431719E-01  3.6687789304E-01  6.6803823856E-01
                      -1.6076517262E-02  6.3489959374E-01  1.6641154762E-01
                       5.3541858559E-01  7.5030724984E-01  8.6746806258E-01
                       2.3008295069E-01  9.6053858705E-01  1.6395286121E-01
                       2.6974843108E-01  4.0187210050E-02  6.6324258563E-01
                       8.5903616914E-01  4.7294421342E-01  8.1285214455E-01
                       6.4104299181E-01  5.2655998436E-01  3.0990597323E-01
                       2.0125579875E-01  3.3939758573E-01  9.7387082190E-01
                       9.2741402881E-01  6.9616188570E-01  5.4274774299E-01
                       3.0129428305E-01  6.6159764086E-01  4.7378616864E-01
                       5.7111020255E-01  2.9961663103E-01  4.3496008937E-02
                      -8.4113917682E-02  1.4399072872E-01  9.1810057048E-03
                       5.8634990977E-01  8.5617259446E-01  5.0911413205E-01
 
nshiftk 1
shiftk 
0.5 0.5 0.5
#chksymbreak 0
kptopt   1
ngkpt    2 2 2

ecut 30
ixc      -116133
nband    104
nstep    150
diemac   4


# Data set 1 - Refinement of already computed GS WFs       
irdwfk1   0
irdden1   0
iscf1     7
tolvrs1   1.0E-20
nstep1    100

# Data Set 2: Response Function calculation : d/dk 
rfelfd2    2 
rfdir2     1    1    1 

nqpt2      1 
qpt2       0.0  0.0  0.0  

getwfk2   -1 
getden2   -1 

kptopt2    2 

iscf2     -3 

tolwfr2    1.0d-22 

# Data set 3 : Response Function calculation - electric field perturbation, phonons, and strain

rfphon3   1            # Will consider phonon-type perturbation 
rfelfd3   3            # Electric Field
rfstrs3   3            # Strains

rfdir3    1   1   1    # Along all reduced coordinate axis 
rfatpol3  1   26        # All the atoms will be displaced 

nqpt3     1            # One wavevector is to be considered 
qpt3      0.0 0.0 0.0  # This wavevector is q=0 (Gamma) 

kptopt3   2            # Automatic generation of k points, taking 
                       # into account the time-reversal symmetry only 

getwfk3   1            # Read the ground-state wavefunctions 
getddk3   2
                                              
tolvrs3   1.0d-20      # SCF stopping criterion 
                       



# Printing flags
prtden    1
prteig    0
prtwf     1
prtposcar 0
prtcif    0

ecutsm  0.5
            ngfft          72      75      75
pawecutdg  30
pawxcdev   0
