#input for non-centrosymmetric orthorhombic HfO2

ndtset    2

autoparal 1

#Crystal Def.
ntypat   3
natom    104
typat    16*1 16*2 72*3
znucl    57 42 8
acell 3*1

rprim
  2.68124261003821E+01 -2.75268977919971E-01 -9.66522714064397E-02
 -2.73330931457571E-01  2.69344363991020E+01  2.63455714682059E-01
 -4.76919298009489E-02  1.31655880766420E-01  1.35582177089733E+01

             xred      4.4026374470E-01  4.3418785184E-01  8.4686194542E-01
                       1.6148053207E-01  3.1935555008E-01  1.7371827664E-01
                       7.3996886333E-02  1.6920560080E-01  6.2204743189E-01
                       3.1992855274E-01  8.3690974640E-02  3.7671358342E-01
                       9.1924230195E-01  4.1505755970E-01  8.5169077639E-01
                       6.6625026433E-01  3.3939538516E-01  1.2253544580E-01
                       5.5779156417E-01  1.8895913089E-01  6.5800150807E-01
                       8.3024803193E-01  4.8612637298E-02  3.6049867135E-01
                       4.2387615087E-01  9.3493360890E-01  8.3909748606E-01
                       1.6330363373E-01  8.3476162792E-01  1.1023451382E-01
                       8.1905982576E-02  6.7630922621E-01  6.1067086800E-01
                       3.1945577430E-01  5.6182749820E-01  3.6896914091E-01
                       9.0892567882E-01  9.2797102110E-01  8.5772279771E-01
                       6.4196147004E-01  8.2288854013E-01  1.4178465760E-01
                       5.4689018795E-01  6.8127651647E-01  6.4570747152E-01
                       8.1529304251E-01  5.4243400435E-01  3.3243170995E-01
                       9.5132816448E-02  6.4355185379E-02  1.6658031553E-01
                       3.3398389986E-01  1.6579260285E-01  8.4543346211E-01
                       4.2497534154E-01  3.4921377120E-01  3.1713734695E-01
                       1.6361528895E-01  4.3980029823E-01  6.9045143853E-01
                       6.0105013444E-01  1.0393477716E-01  2.0782760123E-01
                       8.3656673809E-01  1.4504452985E-01  7.9355510863E-01
                       9.2709556366E-01  3.2677246779E-01  3.2636941830E-01
                       6.7863829448E-01  4.4040479405E-01  6.8492114249E-01
                       8.3365123221E-02  5.9273713098E-01  1.4852068007E-01
                       3.1389373196E-01  6.6812564694E-01  8.0756521922E-01
                       4.1348404580E-01  8.3288951289E-01  3.0986345827E-01
                       1.5726073744E-01  8.9704109816E-01  6.4956817586E-01
                       5.8367799305E-01  5.7018261147E-01  2.0295766379E-01
                       8.3505022300E-01  6.6138225483E-01  8.0878332655E-01
                       8.9212566878E-01  8.0741450853E-01  3.3610919338E-01
                       6.6735079149E-01  9.2942331804E-01  6.9717700537E-01
                       1.0871516506E-01  3.3391339564E-01  7.7220894412E-01
                       1.6340045948E-01  1.5712496200E-01  3.1133286816E-01
                       3.4914528382E-01  4.1275217284E-01  1.5177614170E-01
                       4.1262802504E-01  9.2154178393E-02  6.7263927965E-01
                       5.8800516675E-01  3.4916561267E-01  7.9123504685E-01
                       6.8393342191E-01  1.6395332121E-01  3.5283466089E-01
                       8.3564150780E-01  3.8945831795E-01  1.7498181624E-01
                       9.3014019423E-01  7.6311700560E-02  6.6399913480E-01
                       5.7642198038E-02  8.4079417251E-01  7.6176876096E-01
                       1.6756113875E-01  6.5497505331E-01  2.8981947406E-01
                       3.2904526611E-01  8.4887780319E-01  1.1689387384E-01
                       4.0079128079E-01  5.8630069095E-01  6.9490798395E-01
                       5.7722890734E-01  8.4191355529E-01  7.8003570924E-01
                       6.5741922730E-01  6.2269512472E-01  3.7858126661E-01
                       8.6583353906E-01  9.0644629116E-01  1.8847952549E-01
                       9.0366840207E-01  6.6385763919E-01  5.9344869304E-01
                       8.7334189755E-02  1.3517239042E-01  9.6306382749E-01
                       9.9304184050E-01  7.7860915165E-02  3.0930116980E-01
                       2.0184618818E-01  9.9091223548E-01  2.1182232543E-01
                       4.1025823595E-01  4.1724560113E-01  5.1491633262E-01
                       3.4681888517E-01  2.5175200476E-01  3.4896417326E-01
                       5.3410055880E-01  2.8373916368E-01  3.4054558345E-01
                       3.6462688956E-01  7.7329561524E-02  2.1532109676E-02
                       4.2089406515E-01  2.6105544572E-01  8.0479819131E-01
                       2.4290131740E-01  1.4706233511E-01  6.6678068986E-01
                       2.6883589220E-01  4.3683701721E-01  8.2037982822E-01
                       1.9620602959E-01  4.2737179502E-01  4.5134982065E-01
                       5.9645019224E-02  5.1419655166E-01  7.1181953592E-01
                      -8.4732838969E-04  3.4206846580E-01  1.0427909581E-01
                       9.0492718597E-01  4.1106629443E-01  5.0536932776E-01
                       8.6642902534E-01  2.1971140959E-01  3.7282914224E-01
                       4.9825347961E-01  8.5865840606E-02  3.4024965796E-01
                       5.8273085233E-01  1.7719692404E-01  1.0085278575E+00
                       6.6289972370E-01  1.0012495964E+00  1.5745587431E-01
                       7.5866893217E-01  3.7617186246E-01  8.4315196444E-01
                       6.8328424960E-01  4.0680161676E-01  4.4887386710E-01
                       5.8574317412E-01  5.2348428868E-01  7.3070313240E-01
                       8.4154723966E-01  9.0789921845E-02  1.7220206953E-02
                       9.1437664731E-01  2.4518660818E-01  7.8931498694E-01
                       7.2541524029E-01  1.9518311961E-01  7.5750673063E-01
                       3.1627573468E-01  6.2126702963E-01  3.4028320666E-02
                       4.0175845617E-01  7.6042134853E-01  7.8557858218E-01
                       2.2591020653E-01  5.9509196492E-01  6.4231641185E-01
                       1.3455939261E-01  4.8847417782E-01  7.5477203464E-02
                       5.7019480232E-02  6.6680132015E-01  9.5793798125E-01
                       9.8776074826E-01  5.6546821134E-01  2.9701591861E-01
                       3.8614076861E-01  9.2039328601E-01  4.7453161962E-01
                       3.5729241257E-01  7.2702178409E-01  3.9553030787E-01
                       4.9798909395E-01  8.9300070760E-01  1.2291800121E-01
                       1.1533012451E-01  3.3144998011E-03  5.6282380800E-01
                       2.4910581073E-01  9.3070940532E-01  8.0563098973E-01
                       1.8231364753E-01  8.2657263574E-01  4.5636252451E-01
                       6.8704847378E-01  5.0694490320E-01  1.1223031967E-01
                       4.8214453794E-01  5.7729580037E-01  3.5408744512E-01
                       5.6291773600E-01  6.6009723566E-01  1.0341398853E+00
                       8.6672804464E-01  5.7043020643E-01 -2.3887226583E-02
                       8.8469879914E-01  7.6085078962E-01  9.1771534978E-01
                       7.1565235978E-01  6.9250221182E-01  7.8809622499E-01
                       5.8410141582E-01  2.2171982170E-02  7.2408124417E-01
                       7.4294429635E-01  8.8896968689E-01  8.8960377597E-01
                       6.8941236642E-01  8.9332893966E-01  4.6625165829E-01
                       9.4704792282E-03  7.7001124037E-01  3.0515395207E-01
                       8.8347350849E-01  8.6478121632E-01  5.5063262769E-01
                       8.0263680087E-01  7.2436444042E-01  2.8022674102E-01
                       4.6745716108E-02 -4.8252288104E-02  5.9645976936E-02
                       2.6164730061E-01  2.3358588729E-01  9.9101485821E-01
                       1.0456134338E+00  2.9639062224E-01  4.2229193629E-01
                       7.7420683341E-01  5.3162352546E-01  6.6347357342E-01
                       2.1198965033E-01  7.4788299207E-01  8.0921132656E-01
                       5.3142976135E-01  7.8242984932E-01  3.8133732430E-01
                       5.2583929342E-01  4.3792270141E-01  1.4886860593E-01
                       7.6922640809E-01  1.0285454876E+00  6.6846727965E-01
 
kptopt   1
            ngfft         144     144      72
ngkpt    1 1 2
nshiftk 1
shiftk 
0.5 0.5 0.5
ecut       30
ecutsm   0.5
pawecutdg  30
pawxcdev   0
ixc      -116133
nband    420
diemac   4

# First SCF run       
#irdwfk1   1
nstep1    100
iscf1     7
tolvrs1   1.0E-20

#Refinement using tolwfr
nstep2    250
getwfk2   -1
iscf2     7
tolwfr2   1.0E-20

# Printing flags
prtden    1
prteig    0
prtwf     1
prtposcar 0
prtcif    1
