#input for non-centrosymmetric orthorhombic HfO2

ndtset    2

autoparal 1

#Crystal Def.
ntypat   3
natom    104
typat    16*1 16*2 72*3
znucl    57 42 8
acell 3*1

rprim
  2.68124260572142E+01 -2.75269137861971E-01 -9.66523773575646E-02
 -2.73331088900195E-01  2.69344370375264E+01  2.63454958411951E-01
 -4.76919879370301E-02  1.31655502806961E-01  1.35582177170238E+01

kptopt   1
            ngfft         144     144      72
ngkpt    1 1 2
nshiftk 1
shiftk 
0.5 0.5 0.5
ecut       30
ecutsm   0.5
pawecutdg  30
pawxcdev   0
ixc      -116133
nband    420
diemac   4

# First SCF run       
#irdwfk1   1
nstep     100
iscf      7
tolvrs    1.0E-20
ionmov    2
optcell   2
dilatmx   1.04
tolmxf    1e-8
ntime     250
strtarget -1.69946e-05 5*0.0

# Printing flags
prtden    1
prteig    0
prtwf     1
prtposcar 0
prtcif    0



xred  4.40263744552364E-01  4.34187873493142E-01  8.46861919487989E-01
  1.61480555110632E-01  3.19355546179772E-01  1.73718298133243E-01
  7.39969019332826E-02  1.69205587236845E-01  6.22047420704566E-01
  3.19928557279363E-01  8.36909727842004E-02  3.76713597800198E-01
  9.19242293043251E-01  4.15057550364400E-01  8.51690730440567E-01
  6.66250257949578E-01  3.39395404361768E-01  1.22535379333796E-01
  5.57791601182336E-01  1.88959139778581E-01  6.58001520727937E-01
  8.30248035396297E-01  4.86126397126837E-02  3.60498724160691E-01
  4.23876119439123E-01  9.34933616547218E-01  8.39097551719075E-01
  1.63303634627845E-01  8.34761609317781E-01  1.10234573887682E-01
  8.19059888078220E-02  6.76309212378584E-01  6.10670856866345E-01
  3.19455775166316E-01  5.61827500216208E-01  3.68969107736296E-01
  9.08925665167181E-01  9.27971006474277E-01  8.57722825132335E-01
  6.41961449543213E-01  8.22888570148829E-01  1.41784684016074E-01
  5.46890193942409E-01  6.81276532802365E-01  6.45707507511223E-01
  8.15293049829647E-01  5.42433998646520E-01  3.32431698226737E-01
  9.51328296872013E-02  6.43551674456630E-02  1.66580315050327E-01
  3.33983912724943E-01  1.65792642639947E-01  8.45433407176165E-01
  4.24975324369008E-01  3.49213767820166E-01  3.17137304919340E-01
  1.63615293243181E-01  4.39800260520301E-01  6.90451374361280E-01
  6.01050133078201E-01  1.03934783623076E-01  2.07827642874698E-01
  8.36566754770592E-01  1.45044510570567E-01  7.93555189023903E-01
  9.27095556904427E-01  3.26772449910627E-01  3.26369307066604E-01
  6.78638295060132E-01  4.40404807112379E-01  6.84921099919996E-01
  8.33651184993558E-02  5.92737116770771E-01  1.48520678827098E-01
  3.13893724842084E-01  6.68125651645184E-01  8.07565197855778E-01
  4.13484033707897E-01  8.32889524258741E-01  3.09863511212792E-01
  1.57260701758216E-01  8.97041088826484E-01  6.49568244083471E-01
  5.83677997522931E-01  5.70182622905484E-01  2.02957649335500E-01
  8.35050242978563E-01  6.61382260698609E-01  8.08783389490983E-01
  8.92125675664077E-01  8.07414513547267E-01  3.36109161914123E-01
  6.67350783797407E-01  9.29423323866374E-01  6.97177035945271E-01
  1.08715198782503E-01  3.33913349936296E-01  7.72208856173453E-01
  1.63400487269413E-01  1.57124950493944E-01  3.11332829413220E-01
  3.49145282491919E-01  4.12752179595760E-01  1.51776098191611E-01
  4.12628049654771E-01  9.21541947845301E-02  6.72639269300912E-01
  5.88005175976748E-01  3.49165632158532E-01  7.91235045324138E-01
  6.83933377896329E-01  1.63953284537164E-01  3.52834869746607E-01
  8.35641518914296E-01  3.89458339548724E-01  1.74981740264263E-01
  9.30140185435916E-01  7.63117049656615E-02  6.63999115751411E-01
  5.76421690226197E-02  8.40794144045349E-01  7.61768811238629E-01
  1.67561139487650E-01  6.54975060347525E-01  2.89819428823175E-01
  3.29045268723032E-01  8.48877844400987E-01  1.16893899679347E-01
  4.00791293767530E-01  5.86300708678517E-01  6.94907949709232E-01
  5.77228895991934E-01  8.41913570641329E-01  7.80035773031259E-01
  6.57419222034984E-01  6.22695104264442E-01  3.78581303107575E-01
  8.65833521851322E-01  9.06446303003990E-01  1.88479544511844E-01
  9.03668439037809E-01  6.63857620912501E-01  5.93448796321008E-01
  8.73342229762896E-02  1.35172351579591E-01  9.63063798342111E-01
  9.93041866123626E-01  7.78609262205271E-02  3.09301188182818E-01
  2.01846185206214E-01  9.90912206667104E-01  2.11822424821363E-01
  4.10258239251495E-01  4.17245609400313E-01  5.14916287634240E-01
  3.46818831044876E-01  2.51752031202679E-01  3.48964135901533E-01
  5.34100528154812E-01  2.83739144575453E-01  3.40545487258665E-01
  3.64626861479205E-01  7.73296208349958E-02  2.15320898455560E-02
  4.20894096617092E-01  2.61055468516565E-01  8.04798099539225E-01
  2.42901331053596E-01  1.47062327906268E-01  6.66780651066074E-01
  2.68835881705463E-01  4.36837041668054E-01  8.20379803040504E-01
  1.96206051119448E-01  4.27371775341668E-01  4.51349757535898E-01
  5.96450371543884E-02  5.14196510829272E-01  7.11819481356749E-01
 -8.47304974945625E-04  3.42068491227936E-01  1.04279044983344E-01
  9.04927169842894E-01  4.11066245302098E-01  5.05369278455200E-01
  8.66428983162717E-01  2.19711398624678E-01  3.72828886750664E-01
  4.98253446935083E-01  8.58658290502005E-02  3.40249580475125E-01
  5.82730908878057E-01  1.77196946360022E-01  1.00852790542395E+00
  6.62899735219799E-01  1.00124961710277E+00  1.57455887369626E-01
  7.58668930558402E-01  3.76171862506111E-01  8.43151909454005E-01
  6.83284249508813E-01  4.06801625223499E-01  4.48873818810696E-01
  5.85743174114022E-01  5.23484297356419E-01  7.30703101753748E-01
  8.41547277338231E-01  9.07898861545273E-02  1.72202616878062E-02
  9.14376664787327E-01  2.45186586128089E-01  7.89315075034195E-01
  7.25415260421554E-01  1.95183109026874E-01  7.57506849305732E-01
  3.16275731084276E-01  6.21267026708508E-01  3.40282873723245E-02
  4.01758441047663E-01  7.60421363248775E-01  7.85578579478382E-01
  2.25910221614061E-01  5.95091985745108E-01  6.42316358284762E-01
  1.34559390180522E-01  4.88474161693911E-01  7.54772509397722E-02
  5.70194661852808E-02  6.66801267403055E-01  9.57937942821176E-01
  9.87760752936549E-01  5.65468221540384E-01  2.97015957507320E-01
  3.86140748419129E-01  9.20393273222880E-01  4.74531722709216E-01
  3.57292379082650E-01  7.27021798014075E-01  3.95530268452161E-01
  4.97989082400694E-01  8.93000744962112E-01  1.22918083654025E-01
  1.15330089194549E-01  3.31448525558670E-03  5.62823874161913E-01
  2.49105770840852E-01  9.30709400155022E-01  8.05631074654519E-01
  1.82313620312745E-01  8.26572621922603E-01  4.56362594591856E-01
  6.87048476882442E-01  5.06944919387553E-01  1.12230280537110E-01
  4.82144527912620E-01  5.77295828215102E-01  3.54087385283199E-01
  5.62917769827184E-01  6.60097266198780E-01  1.03413990119156E+00
  8.66728042526908E-01  5.70430202237574E-01 -2.38871897212378E-02
  8.84698791899033E-01  7.60850794833822E-01  9.17715480950771E-01
  7.15652384218733E-01  6.92502213037831E-01  7.88096197725881E-01
  5.84101413782791E-01  2.21719890976101E-02  7.24081255139120E-01
  7.42944288075430E-01  8.88969679588051E-01  8.89603799154678E-01
  6.89412358515176E-01  8.93328942625252E-01  4.66251685827758E-01
  9.47048172840716E-03  7.70011233534385E-01  3.05153910896827E-01
  8.83473528589326E-01  8.64781196996877E-01  5.50632627009072E-01
  8.02636810224278E-01  7.24364426828382E-01  2.80226816641165E-01
  4.67457187996919E-02 -4.82523049542126E-02  5.96460044561913E-02
  2.61647323596980E-01  2.33585993418989E-01  9.91014700002085E-01
  1.04561340732439E+00  2.96390563408600E-01  4.22291871738179E-01
  7.74206839193730E-01  5.31623521833941E-01  6.63473576675302E-01
  2.11989637254720E-01  7.47882987174759E-01  8.09211376301373E-01
  5.31429745811547E-01  7.82429851134294E-01  3.81337356529729E-01
  5.25839294596778E-01  4.37922719819762E-01  1.48868572734260E-01
  7.69226410271289E-01  1.02854547210851E+00  6.68467356693701E-01
