#input for KTaO3

ndtset    3

autoparal 1

#Crystal Def.
ntypat   3
natom    26
typat    4*1 4*2 18*3
znucl    57 42 8
acell 3*1


rprim
  1.35311226241363E+01  3.03627194386286E-01  2.37772014990730E-02
  3.06344257438307E-01  1.35626706010598E+01  3.37197490875672E-01
  2.40568602152663E-02  3.34808665792625E-01  1.34128083730278E+01

             xred      8.5177727465E-01  9.0853208233E-01  8.4415405571E-01
                       3.3997638753E-01  6.6670455532E-01  1.7072261173E-01
                       1.3009772841E-01  3.4302551623E-01  5.9893871899E-01
                       6.4735930028E-01  1.6297375373E-01  3.3856100167E-01
                       1.8966715004E-01  1.4270212948E-01  1.5839368236E-01
                       6.6371400237E-01  3.5966901179E-01  7.9254521012E-01
                       8.0039938967E-01  6.8597959802E-01  3.8220050234E-01
                       3.1531142827E-01  8.0121432257E-01  7.0720732611E-01
                       3.2269020590E-01  3.3054885384E-01  2.8559479633E-01
                       8.4148166928E-01  1.9255490633E-01  6.5664033237E-01
                       7.5643953303E-01  8.2290721587E-01  1.7151986717E-01
                       1.6560347381E-01  6.4644181780E-01  8.3251321114E-01
                       9.9188361819E-01  1.9191419158E-01  3.0702191133E-01
                       4.8154012874E-01  2.8636381325E-01  6.4575526448E-01
                       4.3379441973E-02  6.2122056092E-01  3.7417880376E-01
                       4.9216591445E-01  8.7333365858E-01  8.5645489857E-01
                       3.9532186351E-01  9.8639648095E-01  2.4445472793E-01
                       1.6576894443E-01 -5.3667805339E-03  6.3577235317E-01
                       8.1870940311E-01  5.4369626381E-01  6.8592179731E-01
                       6.6307594402E-01  4.9658055276E-01  3.2981183681E-01
                       1.7333718084E-01  2.6683118186E-01  9.3784895678E-01
                       7.3069263190E-01  8.7404849282E-01  5.3103519226E-01
                       3.9477508715E-01  6.7884151724E-01  5.1154619746E-01
                       7.1808895359E-01  1.9063971565E-01 -8.6165909685E-03
                       1.0736197338E-01 -8.2145170710E-02  6.9634945270E-02
                       5.3538137145E-01  5.1439175847E-01  9.4018838979E-01
 
nshiftk 1
shiftk 
0.5 0.5 0.5
#chksymbreak 0
kptopt   1
ngkpt    2 2 2

ecut 30
ixc      -116133
nband    104
nstep    150
diemac   4


# Data set 1 - Refinement of already computed GS WFs       
irdwfk1   0
irdden1   0
iscf1     7
tolvrs1   1.0E-20
nstep1    100

# Data Set 2: Response Function calculation : d/dk 
rfelfd2    2 
rfdir2     1    1    1 

nqpt2      1 
qpt2       0.0  0.0  0.0  

getwfk2   -1 
getden2   -1 

kptopt2    2 

iscf2     -3 

tolwfr2    1.0d-22 

# Data set 3 : Response Function calculation - electric field perturbation, phonons, and strain

rfphon3   1            # Will consider phonon-type perturbation 
rfelfd3   3            # Electric Field
rfstrs3   3            # Strains

rfdir3    1   1   1    # Along all reduced coordinate axis 
rfatpol3  1   26        # All the atoms will be displaced 

nqpt3     1            # One wavevector is to be considered 
qpt3      0.0 0.0 0.0  # This wavevector is q=0 (Gamma) 

kptopt3   2            # Automatic generation of k points, taking 
                       # into account the time-reversal symmetry only 

getwfk3   1            # Read the ground-state wavefunctions 
getddk3   2
                                              
tolvrs3   1.0d-20      # SCF stopping criterion 
                       



# Printing flags
prtden    1
prteig    0
prtwf     1
prtposcar 0
prtcif    0

ecutsm  0.5
            ngfft          72      75      75
pawecutdg  30
pawxcdev   0
