#input for non-centrosymmetric orthorhombic HfO2

ndtset    1
autoparal 1

#Crystal Def.

nsym      1
ntypat   3
natom    26
typat    4*1 4*2 18*3
znucl    57 42 8

acell 3*1

rprim
  1.35397890070985E+01  1.74012020143569E-01  1.83490235106127E-01
  1.69523534204282E-01  1.32728677426074E+01  4.87983262918177E-02
  1.71885680221977E-01  5.75060834329498E-02  1.36968516931774E+01

             xred   
  8.15863960461708E-01  8.46203931288627E-01  8.49987956123562E-01
  3.93809555359065E-01  6.26996138051002E-01  1.48849891123444E-01
  1.57050554499601E-01  3.67508180097403E-01  5.71353193874300E-01
  6.36706680165292E-01  1.39663481341857E-01  3.20059508431254E-01
  1.85212855715316E-01  1.56325996694760E-01  1.32696670639102E-01
  6.94748144332679E-01  3.26728118944602E-01  7.91000867002186E-01
  8.13887520853222E-01  6.71049585300253E-01  3.80887815976591E-01
  3.07035430336062E-01  8.16095095814839E-01  6.74825741998861E-01
  3.40276001714823E-01  3.27857658178256E-01  2.98471062462213E-01
  8.96284560507057E-01  1.91927314760709E-01  7.04949578796985E-01
  7.26759707741577E-01  8.21587704769053E-01  1.82889904668111E-01
  1.24910641166963E-01  6.73172639170079E-01  7.68839238197125E-01
  9.93732984117991E-01  2.08278443567035E-01  2.92820005790251E-01
  5.12244170256475E-01  2.85909806182238E-01  6.38145170061485E-01
  5.55623220018941E-02  6.40667374449080E-01  3.23744196555465E-01
  4.68788515935022E-01  8.45839875347050E-01  8.51272163040976E-01
  3.63684541710460E-01  9.77380478789743E-01  2.06851496315850E-01
  2.27585071755716E-01  3.18586070193213E-02  5.82545101806520E-01
  6.61694098706991E-01  5.40703792821758E-01  9.26303094786545E-01
  6.76468359423556E-01  4.81570768761147E-01  2.89983599525383E-01
  2.29247262130291E-01  3.40309112539346E-01  9.62575239589538E-01
  7.49895677999817E-01  8.83793724038732E-01  5.25876654260917E-01
  4.02254691792903E-01  6.71367020389635E-01  4.95767386533592E-01
  6.60934319660051E-01  1.61882046496389E-01 -2.05916949417129E-02
  7.66207593766391E-02 -1.55997827829860E-02 -9.06854277347613E-03
  8.28757612281927E-01  5.30920587969499E-01  6.08966700152006E-01




kptopt   1
ngkpt    2 2 2
nshiftk 1
shiftk 
0.5 0.5 0.5

ecut       30
pawecutdg  30
pawxcdev   0
ixc      -116133
nband    104
diemac   4

ecutsm  0.5
nstep    100
iscf     7
tolvrs   1.0E-20
ionmov   2
optcell  2
dilatmx  1.04
tolmxf   1e-8
ntime    150
strtarget 3*0.0  0.0  -3.39893e-05  0.0



# Printing flags
prtden    1
prteig    0
prtwf     1
prtposcar 0
prtcif    1
