#input for KTaO3

ndtset    3

autoparal 1

#Crystal Def.
ntypat   3
natom    26
typat    4*1 4*2 18*3
znucl    57 42 8
acell 3*1


rprim
  1.32970932771548E+01 -1.32301421998574E-03  3.79495026620064E-03
 -1.15745563658718E-03  1.35580443261503E+01  6.92078288357546E-01
  3.76013036344508E-03  7.15037327187795E-01  1.36298242109820E+01

             xred      8.6906049425E-01  8.7079184984E-01  8.1874091229E-01
                       3.6930002024E-01  6.2845562104E-01  1.8077445993E-01
                       1.2427205655E-01  3.3479900747E-01  6.0463063040E-01
                       6.2391921612E-01  1.6505844106E-01  3.9545336936E-01
                       1.6112420369E-01  1.2023182316E-01  1.8933189534E-01
                       6.6149674289E-01  3.7982102430E-01  8.1057047297E-01
                       8.3120715953E-01  7.0506945043E-01  2.9770232553E-01
                       3.3123883913E-01  7.9434080107E-01  7.0235344262E-01
                       3.1939296718E-01  3.0646726781E-01  3.0465676617E-01
                       8.1951522901E-01  1.9349622250E-01  6.9640810230E-01
                       6.8393862684E-01  7.8561380267E-01  9.8679087100E-02
                       1.8364247787E-01  7.1335479024E-01  9.0127737265E-01
                       9.7375360974E-01  1.9995031385E-01  3.3942240204E-01
                       4.7380640890E-01  2.9989936502E-01  6.6113770241E-01
                       4.3769970929E-02  5.7191791181E-01  3.0210838287E-01
                       5.4341633229E-01  9.2826697495E-01  6.9791908208E-01
                       3.6785648434E-01  9.6380597065E-01  2.4996549337E-01
                       1.6699603254E-01 -1.7112101406E-02  6.3494726108E-01
                       8.6782529032E-01  5.3681493602E-01  7.4896625862E-01
                       6.6729142596E-01  5.1634602174E-01  3.6550191820E-01
                       1.6313808640E-01  2.3198037403E-01  9.6182711496E-01
                       8.1129037480E-01  8.5867710541E-01  4.7243511845E-01
                       3.1167631943E-01  6.4152628653E-01  5.2695723328E-01
                       6.6324658423E-01  2.7002031150E-01  3.8872537286E-02
                       8.8264823003E-03 -8.4932000016E-02  1.4370351494E-01
                       5.0899856456E-01  5.8533842833E-01  8.5565714375E-01
 
nshiftk 1
shiftk 
0.5 0.5 0.5
#chksymbreak 0
kptopt   1
ngkpt    2 2 2

ecut 30
ixc      -116133
nband    104
nstep    150
diemac   4


# Data set 1 - Refinement of already computed GS WFs       
irdwfk1   0
irdden1   0
iscf1     7
tolvrs1   1.0E-20
nstep1    100

# Data Set 2: Response Function calculation : d/dk 
rfelfd2    2 
rfdir2     1    1    1 

nqpt2      1 
qpt2       0.0  0.0  0.0  

getwfk2   -1 
getden2   -1 

kptopt2    2 

iscf2     -3 

tolwfr2    1.0d-22 

# Data set 3 : Response Function calculation - electric field perturbation, phonons, and strain

rfphon3   1            # Will consider phonon-type perturbation 
rfelfd3   3            # Electric Field
rfstrs3   3            # Strains

rfdir3    1   1   1    # Along all reduced coordinate axis 
rfatpol3  1   26        # All the atoms will be displaced 

nqpt3     1            # One wavevector is to be considered 
qpt3      0.0 0.0 0.0  # This wavevector is q=0 (Gamma) 

kptopt3   2            # Automatic generation of k points, taking 
                       # into account the time-reversal symmetry only 

getwfk3   1            # Read the ground-state wavefunctions 
getddk3   2
                                              
tolvrs3   1.0d-20      # SCF stopping criterion 
                       



# Printing flags
prtden    1
prteig    0
prtwf     1
prtposcar 0
prtcif    0

ecutsm  0.5
            ngfft          72      75      75
pawecutdg  30
pawxcdev   0
