#input for KTaO3

ndtset    3

autoparal 1

#Crystal Def.
ntypat   3
natom    26
typat    4*1 4*2 18*3
znucl    57 42 8
acell 3*1


rprim
  1.35218310588761E+01  6.92251679274458E-01 -2.10940439127689E-03
  7.02234185868375E-01  1.35859223963742E+01  1.12090407096914E-02
 -2.87778716661800E-03  1.04148591873505E-02  1.33230407745042E+01

             xred      8.6993285146E-01  8.1878696561E-01  8.6828171030E-01
                       3.3509038685E-01  6.0505279198E-01  1.2394249371E-01
                       1.6440171180E-01  3.9504072454E-01  6.2390838721E-01
                       6.2793228767E-01  1.8053038955E-01  3.7024526716E-01
                       1.2015684891E-01  1.8928976114E-01  1.6133007436E-01
                       7.0518738641E-01  2.9781553675E-01  8.3170555897E-01
                       7.9483551876E-01  7.0216431497E-01  3.3079041172E-01
                       3.7971354659E-01  8.1043088126E-01  6.6138902451E-01
                       3.0606116356E-01  3.0519813209E-01  3.1928436094E-01
                       7.8714788536E-01  9.9585749061E-02  6.8348448911E-01
                       7.1198690918E-01  9.0123897161E-01  1.8369940209E-01
                       1.9318233138E-01  6.9630558248E-01  8.1897225502E-01
                       9.6274007298E-01  2.5044216899E-01  3.6702517004E-01
                       5.1600025677E-01  3.6581407515E-01  6.6810177492E-01
                      -1.6752448441E-02  6.3486461132E-01  1.6630212062E-01
                       5.3645920806E-01  7.4913283086E-01  8.6834707435E-01
                       2.3195468536E-01  9.6102210182E-01  1.6474913994E-01
                       2.6977974939E-01  3.9565203891E-02  6.6185953990E-01
                       8.5892226598E-01  4.7335265457E-01  8.1171657009E-01
                       6.4091714485E-01  5.2673228746E-01  3.1178539741E-01
                       2.0035410367E-01  3.3901043296E-01  9.7372423026E-01
                       9.2946414168E-01  6.9749607235E-01  5.4240287263E-01
                       3.0040756867E-01  6.6123825854E-01  4.7380122696E-01
                       5.7210557362E-01  3.0151096448E-01  4.3977748398E-02
                      -8.4927278107E-02  1.4292840301E-01  8.6316938630E-03
                       5.8694612755E-01  8.5545013357E-01  5.1054200554E-01
 
nshiftk 1
shiftk 
0.5 0.5 0.5
#chksymbreak 0
kptopt   1
ngkpt    2 2 2

ecut 30
ixc      -116133
nband    104
nstep    150
diemac   4


# Data set 1 - Refinement of already computed GS WFs       
irdwfk1   0
irdden1   0
iscf1     7
tolvrs1   1.0E-20
nstep1    100

# Data Set 2: Response Function calculation : d/dk 
rfelfd2    2 
rfdir2     1    1    1 

nqpt2      1 
qpt2       0.0  0.0  0.0  

getwfk2   -1 
getden2   -1 

kptopt2    2 

iscf2     -3 

tolwfr2    1.0d-22 

# Data set 3 : Response Function calculation - electric field perturbation, phonons, and strain

rfphon3   1            # Will consider phonon-type perturbation 
rfelfd3   3            # Electric Field
rfstrs3   3            # Strains

rfdir3    1   1   1    # Along all reduced coordinate axis 
rfatpol3  1   26        # All the atoms will be displaced 

nqpt3     1            # One wavevector is to be considered 
qpt3      0.0 0.0 0.0  # This wavevector is q=0 (Gamma) 

kptopt3   2            # Automatic generation of k points, taking 
                       # into account the time-reversal symmetry only 

getwfk3   1            # Read the ground-state wavefunctions 
getddk3   2
                                              
tolvrs3   1.0d-20      # SCF stopping criterion 
                       



# Printing flags
prtden    1
prteig    0
prtwf     1
prtposcar 0
prtcif    0

ecutsm  0.5
            ngfft          72      75      75
pawecutdg  30
pawxcdev   0
