#input for KTaO3

ndtset    3

autoparal 1

#Crystal Def.
ntypat   3
natom    26
typat    4*1 4*2 18*3
znucl    57 42 8
acell 3*1


rprim
  1.36114846498153E+01 -6.76213223165680E-01  3.81173131337844E-03
 -7.08677793137682E-01  1.34558871331697E+01  5.94827697743027E-03
  2.90982962721753E-03  6.12999227413889E-03  1.33380482027346E+01

             xred      8.3570231652E-01  8.9515133961E-01  8.7585445836E-01
                       3.7330517466E-01  6.8135602621E-01  1.2961789388E-01
                       1.2640017796E-01  3.1896840327E-01  6.2880793496E-01
                       6.6430530020E-01  1.0498415518E-01  3.7575429455E-01
                       2.0425386716E-01  2.0119789903E-01  1.6852875473E-01
                       6.1841176989E-01  3.1075460446E-01  8.3825656212E-01
                       8.8162122972E-01  6.8936046728E-01  3.3864196857E-01
                       2.9589480491E-01  7.9864606375E-01  6.6923111267E-01
                       2.8461393015E-01  4.0172752082E-01  3.1602172413E-01
                       8.0494839565E-01  1.9600405514E-01  6.8101374838E-01
                       6.9485888350E-01  8.0368641984E-01  1.8115645388E-01
                       2.1483530814E-01  5.9810626145E-01  8.1676341981E-01
                       1.0162752831E+00  1.3195544773E-01  3.3143268188E-01
                       4.6230423405E-01  2.4995956989E-01  6.3258171329E-01
                       3.7633551951E-02  7.5078119145E-01  1.3267873177E-01
                       4.8307485082E-01  8.6864956717E-01  8.3260104401E-01
                       3.5932852401E-01  1.0259303739E+00  1.8958035789E-01
                       1.4067873257E-01 -2.6034779373E-02  6.8788690626E-01
                       7.2761191205E-01  5.4205786468E-01  8.3634207616E-01
                       7.7265083514E-01  4.5794186046E-01  3.3725296087E-01
                       7.2188794831E-02  1.9867643540E-01  9.5633777487E-01
                       7.9984405854E-01  8.3875019350E-01  5.2610248727E-01
                       4.2870715036E-01  7.9986167809E-01  4.5759479195E-01
                       7.0029523259E-01  1.6147477924E-01  2.6014786078E-02
                       4.1481759244E-01  3.5523396606E-01  9.9204502483E-01
                       1.0854380889E+00  6.4481863578E-01  4.9190033683E-01
 
nshiftk 1
shiftk 
0.5 0.5 0.5
#chksymbreak 0
kptopt   1
ngkpt    2 2 2

ecut 30
ixc      -116133
nband    104
nstep    150
diemac   4


# Data set 1 - Refinement of already computed GS WFs       
irdwfk1   0
irdden1   0
iscf1     7
tolvrs1   1.0E-20
nstep1    100

# Data Set 2: Response Function calculation : d/dk 
rfelfd2    2 
rfdir2     1    1    1 

nqpt2      1 
qpt2       0.0  0.0  0.0  

getwfk2   -1 
getden2   -1 

kptopt2    2 

iscf2     -3 

tolwfr2    1.0d-22 

# Data set 3 : Response Function calculation - electric field perturbation, phonons, and strain

rfphon3   1            # Will consider phonon-type perturbation 
rfelfd3   3            # Electric Field
rfstrs3   3            # Strains

rfdir3    1   1   1    # Along all reduced coordinate axis 
rfatpol3  1   26        # All the atoms will be displaced 

nqpt3     1            # One wavevector is to be considered 
qpt3      0.0 0.0 0.0  # This wavevector is q=0 (Gamma) 

kptopt3   2            # Automatic generation of k points, taking 
                       # into account the time-reversal symmetry only 

getwfk3   1            # Read the ground-state wavefunctions 
getddk3   2
                                              
tolvrs3   1.0d-20      # SCF stopping criterion 
                       



# Printing flags
prtden    1
prteig    0
prtwf     1
prtposcar 0
prtcif    0

ecutsm  0.5
            ngfft          72      75      75
pawecutdg  30
pawxcdev   0
