#input for non-centrosymmetric orthorhombic HfO2

ndtset    2

autoparal 1

#Crystal Def.
ntypat   3
natom    26
typat    4*1 4*2 18*3
znucl    57 42 8
acell 3*1

rprim
  1.35224310094144E+01 -6.95185813707090E-01  3.87849222942097E-03
 -7.15760867149387E-01  1.35946499852076E+01  5.28662233715075E-03
  2.92107476415115E-03  5.55584788990537E-03  1.33221404598521E+01

             xred      8.3499151962E-01  8.9513793964E-01  8.7623912353E-01
                       3.7040078028E-01  6.8168725507E-01  1.3120044779E-01
                       1.2924111973E-01  3.1864328711E-01  6.3038823404E-01
                       6.6495694790E-01  1.0493903595E-01  3.7619043951E-01
                       2.0568534960E-01  2.0279935409E-01  1.6835822664E-01
                       6.2059578137E-01  3.1084065739E-01  8.3846044921E-01
                       8.7945018289E-01  6.8918298481E-01  3.3874750269E-01
                       2.9440712433E-01  7.9714705633E-01  6.6894656283E-01
                       2.8745189883E-01  4.0168439544E-01  3.1594134214E-01
                       8.0652238878E-01  1.9504324433E-01  6.8091355305E-01
                       6.9328396401E-01  8.0454298221E-01  1.8101920711E-01
                       2.1221370982E-01  5.9813737913E-01  8.1644831500E-01
                       1.0164908782E+00  1.3569587610E-01  3.3251522576E-01
                       4.6333652409E-01  2.4926804002E-01  6.3240512959E-01
                       3.6538320337E-02  7.5134354767E-01  1.3233588803E-01
                       4.8284991616E-01  8.6506327691E-01  8.3342711720E-01
                       3.5917265839E-01  1.0274835407E+00  1.8934192354E-01
                       1.4064158787E-01 -2.7623256873E-02  6.8785189808E-01
                       7.3194807251E-01  5.3930458401E-01  8.3593214910E-01
                       7.6837617351E-01  4.6058994805E-01  3.3679191240E-01
                       7.2053113308E-02  1.9661803733E-01  9.5618459261E-01
                       7.9994830345E-01  8.3846934514E-01  5.2625827169E-01
                       4.2883790024E-01  8.0238145177E-01  4.5727355233E-01
                       7.0021042062E-01  1.6159146951E-01  2.6225337703E-02
                       4.1456521482E-01  3.5628936583E-01  9.9049211554E-01
                       1.0858301492E+00  6.4373920232E-01  4.9011148289E-01
 
kptopt   1
            ngfft          72      75      75
ngkpt    2 2 2
nshiftk 1
shiftk 
0.5 0.5 0.5
ecut       30
ecutsm  0.5
pawecutdg  30
pawxcdev   0
ixc      -116133
nband    104
diemac   4

# First SCF run       
#irdwfk1   1
nstep1    100
iscf1     7
tolvrs1   1.0E-20

#Refinement using tolwfr
nstep2    250
getwfk2   -1
iscf2     7
tolwfr2   1.0E-20

# Printing flags
prtden    1
prteig    0
prtwf     1
prtposcar 0
prtcif    1
