#input for KTaO3

ndtset    3

autoparal 1

#Crystal Def.
ntypat   3
natom    26
typat    4*1 4*2 18*3
znucl    57 42 8
acell 3*1


rprim
  1.32757409338989E+01  0.00000000000000E+00  0.00000000000000E+00
  0.00000000000000E+00  1.35988554347939E+01  9.63987601262487E-01
  0.00000000000000E+00  9.88713826081549E-01  1.36297084074766E+01

             xred      8.6622410807E-01  8.6151902352E-01  8.1402197030E-01
                       3.6622410807E-01  6.3848097648E-01  1.8597802970E-01
                       1.2253868178E-01  3.3071078623E-01  6.0375087437E-01
                       6.2253868178E-01  1.6928921377E-01  3.9624912563E-01
                       1.6247022840E-01  1.2230064072E-01  1.9032840144E-01
                       6.6247022840E-01  3.7769935928E-01  8.0967159856E-01
                       8.3074724532E-01  7.0932859976E-01  2.9895399978E-01
                       3.3074724532E-01  7.9067140024E-01  7.0104600022E-01
                       3.1879597318E-01  3.1035236470E-01  3.0130094287E-01
                       8.1879597318E-01  1.8964763530E-01  6.9869905713E-01
                       6.8446039144E-01  7.9333573348E-01  9.6864032600E-02
                       1.8446039144E-01  7.0666426652E-01  9.0313596740E-01
                       9.7305359186E-01  1.9811758268E-01  3.3566543411E-01
                       4.7305359186E-01  3.0188241732E-01  6.6433456589E-01
                       4.0198282464E-02  5.7014313477E-01  3.0842139273E-01
                       5.4019828246E-01  9.2985686523E-01  6.9157860727E-01
                       3.7131431001E-01  9.6775181070E-01  2.5793607273E-01
                       1.6363241269E-01 -2.0519188119E-02  6.3329602285E-01
                       8.7131431001E-01  5.3224818930E-01  7.4206392727E-01
                       6.6363241269E-01  5.2051918812E-01  3.6670397715E-01
                       1.6691116280E-01  2.3591822909E-01  9.6004494090E-01
                       8.0858422117E-01  8.5969684591E-01  4.7008857317E-01
                       3.0858422117E-01  6.4030315409E-01  5.2991142683E-01
                       6.6691116280E-01  2.6408177091E-01  3.9955059100E-02
                       1.6069390858E-02 -8.5975051577E-02  1.4453412205E-01
                       5.1606939086E-01  5.8597505158E-01  8.5546587795E-01
 
#chksymbreak 0
kptopt   1
ngkpt    2 2 2
nshiftk 1
shiftk
0.5 0.5 0.5

ecut 30
ixc      -116133
nband    104
nstep    150
diemac   4


# Data set 1 - Refinement of already computed GS WFs       
irdwfk1   0
irdden1   0
iscf1     7
tolvrs1   1.0E-20
nstep1    100

# Data Set 2: Response Function calculation : d/dk 
rfelfd2    2 
rfdir2     1    1    1 

nqpt2      1 
qpt2       0.0  0.0  0.0  

getwfk2   -1 
getden2   -1 

kptopt2    2 

iscf2     -3 

tolwfr2    1.0d-22 

# Data set 3 : Response Function calculation - electric field perturbation, phonons, and strain

rfphon3   1            # Will consider phonon-type perturbation 
rfelfd3   3            # Electric Field
rfstrs3   3            # Strains

rfdir3    1   1   1    # Along all reduced coordinate axis 
rfatpol3  1   26        # All the atoms will be displaced 

nqpt3     1            # One wavevector is to be considered 
qpt3      0.0 0.0 0.0  # This wavevector is q=0 (Gamma) 

kptopt3   2            # Automatic generation of k points, taking 
                       # into account the time-reversal symmetry only 

getwfk3   1            # Read the ground-state wavefunctions 
getddk3   2
                                              
tolvrs3   1.0d-20      # SCF stopping criterion 
                       



# Printing flags
prtden    1
prteig    0
prtwf     1
prtposcar 0
prtcif    0

ecutsm   0.5
            ngfft          72      75      75
pawecutdg  30
pawxcdev   0
