#input for non-centrosymmetric orthorhombic HfO2

ndtset    1
autoparal 1

#Crystal Def.

nsym      1
ntypat   3
natom    26
typat    4*1 4*2 18*3
znucl    57 42 8

acell 3*1

rprim
  1.35757011284068E+01  1.74859090655916E-01  6.72473835455384E-01
  1.72872035994888E-01  1.33038357827560E+01 -2.59235007806377E-02
  6.65704026029967E-01 -1.79116662572019E-02  1.35783057606108E+01

             xred   
  8.14671116741032E-01  8.60833688606153E-01  8.62493382854212E-01
  3.95422969610618E-01  6.23717162129528E-01  1.62182840189517E-01
  1.74855070999325E-01  3.76673189368609E-01  6.14102935344462E-01
  6.07591129379320E-01  1.26254728514624E-01  3.32241768889717E-01
  1.88873272004836E-01  1.60215518029247E-01  1.18391835098900E-01
  7.01124673237051E-01  3.28972148286995E-01  7.94382372370351E-01
  8.09868870653103E-01  6.62567432512125E-01  3.80794589634409E-01
  2.97470247787600E-01  8.32675259817911E-01  7.02402194365714E-01
  3.14503551927439E-01  3.20760943712412E-01  3.01056941267901E-01
  9.03732594801204E-01  1.84200040740962E-01  7.09178502530017E-01
  7.07174786153809E-01  8.18360518779770E-01  1.90262284533222E-01
  1.01848950304261E-01  6.83539652595565E-01  7.78898673648856E-01
  9.66832611342097E-01  1.74051225182993E-01  2.43003887215296E-01
  5.25039447270542E-01  3.10962696379254E-01  6.41040675375665E-01
  4.51280084835030E-02  6.51169598186993E-01  2.87041118328197E-01
  4.71821757308268E-01  8.12180728406902E-01  8.58139186097705E-01
  3.44292044424438E-01  9.73164430712028E-01  2.01757785662801E-01
  2.93777597327973E-01  4.81984101268513E-02  5.77303936148388E-01
  6.91473472412238E-01  5.38404465563173E-01  9.34923960188279E-01
  6.65257145125492E-01  4.75223460240681E-01  3.01736860151805E-01
  2.43815871489670E-01  3.62337698931308E-01  9.60352004165671E-01
  7.43718408602845E-01  8.73206807365644E-01  5.34585068452170E-01
  3.71276402388263E-01  6.71883196479888E-01  5.12842266738004E-01
  6.38739815617588E-01  1.62274445202216E-01 -1.96750410498384E-02
  1.35793302970862E-01  1.36240265136761E-03 -7.56132971721902E-02
  8.45896881649939E-01  5.16810151502995E-01  5.96173268971815E-01


kptopt   1
ngkpt    2 2 2
nshiftk 1
shiftk 
0.5 0.5 0.5

ecut       30
pawecutdg  30
pawxcdev   0
ixc      -116133
nband    104
diemac   4

ecutsm  0.5
nstep    100
iscf     7
tolvrs   1.0E-20
ionmov   2
optcell  2
dilatmx  1.04
tolmxf   1e-8
ntime    150
strtarget 3*0.0  2*0.0  1.69946e-05 



# Printing flags
prtden    1
prteig    0
prtwf     1
prtposcar 0
prtcif    1
