#input for non-centrosymmetric orthorhombic HfO2

ndtset    2

autoparal 1

#Crystal Def.
ntypat   3
natom    26
typat    4*1 4*2 18*3
znucl    57 42 8
acell 3*1

rprim
  1.34025947849734E+01  0.00000000000000E+00  0.00000000000000E+00
  0.00000000000000E+00  1.35466128269438E+01  6.76530495205316E-01
  0.00000000000000E+00  7.03668851907307E-01  1.35352931942036E+01

             xred      8.7048936533E-01  8.7246859771E-01  8.1865981397E-01
                       3.7048936533E-01  6.2753140229E-01  1.8134018603E-01
                       1.2392142746E-01  3.3544732539E-01  6.0507824596E-01
                       6.2392142746E-01  1.6455267461E-01  3.9492175404E-01
                       1.6085274183E-01  1.1954254158E-01  1.8939107062E-01
                       6.6085274183E-01  3.8045745842E-01  8.1060892938E-01
                       8.3148326294E-01  7.0459649940E-01  2.9769974658E-01
                       3.3148326294E-01  7.9540350060E-01  7.0230025342E-01
                       3.1876014533E-01  3.0563731875E-01  3.0490598526E-01
                       8.1876014533E-01  1.9436268125E-01  6.9509401474E-01
                       6.8459674615E-01  7.8609795477E-01  9.8323913502E-02
                       1.8459674615E-01  7.1390204523E-01  9.0167608650E-01
                       9.7471801075E-01  2.0029466948E-01  3.3941525622E-01
                       4.7471801075E-01  2.9970533052E-01  6.6058474378E-01
                       4.3400675497E-02  5.7287573674E-01  3.0154445007E-01
                       5.4340067550E-01  9.2712426326E-01  6.9845554993E-01
                       3.6589591660E-01  9.6235937046E-01  2.4938461412E-01
                       1.6871530289E-01 -1.5966933083E-02  6.3396840999E-01
                       8.6589591660E-01  5.3764062954E-01  7.5061538588E-01
                       6.6871530289E-01  5.1596693308E-01  3.6603159001E-01
                       1.6268713897E-01  2.3079750612E-01  9.6002128965E-01
                       8.1152355368E-01  8.5943034469E-01  4.7298335319E-01
                       3.1152355368E-01  6.4056965531E-01  5.2701664681E-01
                       6.6268713897E-01  2.6920249388E-01  3.9978710352E-02
                       7.9557125846E-03 -8.4554442168E-02  1.4328750259E-01
                       5.0795571258E-01  5.8455444217E-01  8.5671249741E-01
 
kptopt   1
            ngfft          72      75      75
ngkpt    2 2 2
nshiftk 1
shiftk 
0.5 0.5 0.5
ecut       30
ecutsm  0.5
pawecutdg  30
pawxcdev   0
ixc      -116133
nband    104
diemac   4

# First SCF run       
#irdwfk1   1
nstep1    100
iscf1     7
tolvrs1   1.0E-20

#Refinement using tolwfr
nstep2    250
getwfk2   -1
iscf2     7
tolwfr2   1.0E-20

# Printing flags
prtden    1
prteig    0
prtwf     1
prtposcar 0
prtcif    1
