#input for non-centrosymmetric orthorhombic HfO2

ndtset    1
autoparal 1

#Crystal Def.

nsym      1
ntypat   3
natom    26
typat    4*1 4*2 18*3
znucl    57 42 8

acell 3*1

rprim
  1.35336143093271E+01  1.26668730581232E-02  7.17468325243815E-01
  1.25092919039403E-02  1.32872757256729E+01 -2.48308587412660E-03
  7.03013888219664E-01 -2.42556325217690E-03  1.36851927222237E+01

             xred      
  8.17718263578315E-01  8.69342779922749E-01  8.71988852096805E-01
  3.95564017221414E-01  6.24354852475276E-01  1.65173917726006E-01
  1.81172140347440E-01  3.70860526989341E-01  6.25581488900440E-01
  6.04674776151397E-01  1.24618728558830E-01  3.34470445450450E-01
  1.89173139547490E-01  1.61527405419234E-01  1.18871836965159E-01
  7.01999771569177E-01  3.30467053605318E-01  7.94726659540957E-01
  8.10432669609533E-01  6.61821871230929E-01  3.81130890501286E-01
  2.98319589477843E-01  8.30980632916103E-01  7.04690936770728E-01
  3.04102322663994E-01  3.19717517565262E-01  3.05533215608873E-01
  9.02720672726383E-01  1.83212047163838E-01  7.14835215176832E-01
  6.97784052767616E-01  8.19430370124612E-01  1.93913201199027E-01
  9.76146295872994E-02  6.83777769340071E-01  7.82511601279600E-01
  9.59854211760897E-01  1.64942453073886E-01  2.29475715528929E-01
  5.26691415521880E-01  3.10794835778122E-01  6.41759261937552E-01
  4.11364572142490E-02  6.63012783090884E-01  2.73750530302496E-01
  4.72628298554770E-01  8.09920234455557E-01  8.58820989133896E-01
  3.39698416512152E-01  9.74095461011260E-01  2.00419323632999E-01
  3.00014769887506E-01  4.39745267391586E-02  5.73541667316495E-01
  6.99535489956621E-01  5.42533294949822E-01  9.27852050687822E-01
  6.61127494544101E-01  4.74023750868292E-01  3.00001819141227E-01
  2.50196300088421E-01  3.67648118150973E-01  9.63954810738439E-01
  7.47953692943405E-01  8.68294258327699E-01  5.36255793784656E-01
  3.67904487025565E-01  6.68357402563863E-01  5.17069461317099E-01
  6.33656556883841E-01  1.66832736306379E-01 -1.81641471190519E-02
  1.44071470835502E-01  7.03223261072079E-03 -8.27503210456588E-02
  8.54254893036071E-01  5.08426356788251E-01  5.84584783428139E-01



kptopt   1
ngkpt    2 2 2
nshiftk 1
shiftk 
0.5 0.5 0.5

ecut       30
pawecutdg  30
pawxcdev   0
ixc      -116133
nband    104
diemac   4

ecutsm  0.5
nstep    100
iscf     7
tolvrs   1.0E-20
ionmov   2
optcell  2
dilatmx  1.04
tolmxf   1e-8
ntime    150
strtarget 2*0.00 1*3.39893e-05  3*0.0



# Printing flags
prtden    1
prteig    0
prtwf     1
prtposcar 0
prtcif    1
