#input for KTaO3

ndtset    3

autoparal 1

#Crystal Def.
ntypat   3
natom    26
typat    4*1 4*2 18*3
znucl    57 42 8
acell 3*1


rprim
  1.35763406376223E+01  4.89096578646719E-02 -7.03711378181254E-01
  5.59980937336710E-02  1.33137483474000E+01  1.54641127329490E-01
 -7.01605929993312E-01  1.54764294109496E-01  1.35730119304649E+01

             xred      8.9533034923E-01  8.7575191009E-01  8.3399120972E-01
                       3.1939931702E-01  6.2755310037E-01  1.2621053888E-01
                       1.0564359241E-01  3.7643673603E-01  6.6427258777E-01
                       6.8264516981E-01  1.3575424709E-01  3.6793760326E-01
                       2.0145793860E-01  1.6700964523E-01  2.0572457616E-01
                       6.9062402281E-01  3.3872529472E-01  8.8102527857E-01
                       7.9699731121E-01  6.7120493217E-01  2.9548185378E-01
                       3.1131712430E-01  8.3773850281E-01  6.2034717922E-01
                       3.9816717035E-01  3.1710536120E-01  2.8580984291E-01
                       8.0175537745E-01  1.8146959665E-01  6.9310868405E-01
                       5.9547901227E-01  8.1520928490E-01  2.1060103414E-01
                       1.9324015078E-01  6.8012533878E-01  8.0580586857E-01
                       1.0261739549E+00  1.9172828584E-01  3.5820224583E-01
                       4.6053433231E-01  3.4022320251E-01  7.7316430500E-01
                      -2.7977998934E-02  6.8629887541E-01  1.4077403155E-01
                       5.3897702622E-01  8.3226023523E-01  7.3371884272E-01
                       1.9567229370E-01  9.5559810267E-01  7.5193016317E-02
                       1.6188828042E-01  2.6478147444E-02  6.9841650219E-01
                       8.3946803797E-01  5.2584889564E-01  7.9919850881E-01
                       8.0010806226E-01  4.5890476447E-01  4.3267871956E-01
                       1.3542191654E-01  3.3207485879E-01  1.0139510064E+00
                       8.6573794503E-01  8.3458707036E-01  4.7981200372E-01
                       2.5140358112E-01  6.3471715769E-01  4.6443604570E-01
                       7.5451836422E-01  1.2842291946E-01  3.7383752822E-02
                       6.4729410843E-01  4.8576749950E-01  1.0875911660E+00
                       3.5872355962E-01  9.9300603491E-01  4.1516359639E-01
 
nshiftk 1
shiftk 
0.5 0.5 0.5
#chksymbreak 0
kptopt   1
ngkpt    2 2 2

ecut 30
ixc      -116133
nband    104
nstep    150
diemac   4


# Data set 1 - Refinement of already computed GS WFs       
irdwfk1   0
irdden1   0
iscf1     7
tolvrs1   1.0E-20
nstep1    100

# Data Set 2: Response Function calculation : d/dk 
rfelfd2    2 
rfdir2     1    1    1 

nqpt2      1 
qpt2       0.0  0.0  0.0  

getwfk2   -1 
getden2   -1 

kptopt2    2 

iscf2     -3 

tolwfr2    1.0d-22 

# Data set 3 : Response Function calculation - electric field perturbation, phonons, and strain

rfphon3   1            # Will consider phonon-type perturbation 
rfelfd3   3            # Electric Field
rfstrs3   3            # Strains

rfdir3    1   1   1    # Along all reduced coordinate axis 
rfatpol3  1   26        # All the atoms will be displaced 

nqpt3     1            # One wavevector is to be considered 
qpt3      0.0 0.0 0.0  # This wavevector is q=0 (Gamma) 

kptopt3   2            # Automatic generation of k points, taking 
                       # into account the time-reversal symmetry only 

getwfk3   1            # Read the ground-state wavefunctions 
getddk3   2
                                              
tolvrs3   1.0d-20      # SCF stopping criterion 
                       



# Printing flags
prtden    1
prteig    0
prtwf     1
prtposcar 0
prtcif    0

ecutsm  0.5
            ngfft          72      75      75
pawecutdg  30
pawxcdev   0
