#input for non-centrosymmetric orthorhombic HfO2

ndtset    1
autoparal 1

#Crystal Def.

nsym      1
ntypat   3
natom    26
typat    4*1 4*2 18*3
znucl    57 42 8

acell 3*1

rprim
  1.35935429629953E+01  9.65973760905428E-03 -8.30510938125097E-01
  9.60329644585763E-03  1.32987009190352E+01  2.61688149297215E-03
 -8.28621604216724E-01  2.16068228203755E-03  1.35874553760776E+01

xred      
  8.95826111623097E-01  8.76554252428664E-01  8.33180991669153E-01
  3.17141139547213E-01  6.30624190366055E-01  1.31482811316161E-01
  1.03956560036900E-01  3.76688498348883E-01  6.66586233815064E-01
  6.83804871855812E-01  1.31960922939785E-01  3.66839874365894E-01
  2.02128117361670E-01  1.68637769627083E-01  2.07182696505464E-01
  6.89605443113348E-01  3.38269903768954E-01  8.78909301877193E-01
  7.98172010789761E-01  6.69024820219930E-01  2.92782145417636E-01
  3.10286180333384E-01  8.38351473403313E-01  6.20927586304413E-01
  4.02726548363389E-01  3.16111465097220E-01  2.88288528844468E-01
  8.02124347328994E-01  1.80932254242178E-01  6.91824408254632E-01
  5.97390874580275E-01  8.16288654081680E-01  2.10385486657687E-01
  1.96213043970023E-01  6.80835503508453E-01  8.07511008676531E-01
  1.02866350288367E+00  1.90653940875443E-01  3.59104964032183E-01
  4.59656567620426E-01  3.36107398313165E-01  7.67541008866357E-01
 -2.84158070086296E-02  6.89197353215627E-01  1.40631790554821E-01
  5.39499530459249E-01  8.33785063622981E-01  7.33931255972081E-01
  1.95448705125711E-01  9.56947924440726E-01  7.26150970646636E-02
  1.62280174933970E-01  2.65829090463604E-02  6.99760498078934E-01
  8.37485284414278E-01  5.26359050276418E-01  8.01053687602186E-01
  8.04387786116618E-01  4.58389463363918E-01  4.29258131031300E-01
  1.33755990610741E-01  3.33088940869533E-01  1.01796981183989E+00
  8.66376965996906E-01  8.34277799029086E-01  4.81288976848105E-01
  2.46541003765524E-01  6.31737737722698E-01  4.64770130935534E-01
  7.53701550759670E-01  1.30692448796995E-01  3.44646350289318E-02
  6.44371056320657E-01  4.88171751266692E-01  1.08551413419682E+00
  3.56872439111507E-01  9.89728511075258E-01  4.16194804249862E-01



kptopt   1
            ngfft          72      75      75

ngkpt    2 2 2
nshiftk 1
shiftk 
0.5 0.5 0.5

ecut       30
pawecutdg  30
pawxcdev   0
ixc      -116133
nband    104
diemac   4

ecutsm  0.5
nstep    100
iscf     7
tolvrs   1.0E-20
ionmov   2
optcell  2
dilatmx  1.04
tolmxf   1e-8
ntime    150
strtarget 4*0.0 -1.69946e-05 0.0 



# Printing flags
prtden    1
prteig    0
prtwf     1
prtposcar 0
prtcif    1
