#input for non-centrosymmetric orthorhombic HfO2

ndtset    2

autoparal 1

#Crystal Def.
ntypat   3
natom    26
typat    4*1 4*2 18*3
znucl    57 42 8
acell 3*1

rprim
  1.35712032493744E+01  3.02559474082719E-01  1.61762701525004E-02
  3.04773640067092E-01  1.36146635988582E+01  3.38828496933268E-01
  1.65180244856400E-02  3.38828394815749E-01  1.33807524472339E+01

             xred      8.5194681264E-01  9.1092829555E-01  8.4423482740E-01
                       3.4000933209E-01  6.6746715644E-01  1.7085283121E-01
                       1.2909376181E-01  3.4197087146E-01  5.9852710717E-01
                       6.4762251418E-01  1.6335515434E-01  3.3938769528E-01
                       1.9033941792E-01  1.4241438163E-01  1.5852114815E-01
                       6.6340698533E-01  3.6053848232E-01  7.9289250944E-01
                       8.0077581202E-01  6.8545872083E-01  3.8189102788E-01
                       3.1432229001E-01  8.0163412159E-01  7.0722841778E-01
                       3.2215735149E-01  3.3038070144E-01  2.8531101476E-01
                       8.4002413315E-01  1.9300844827E-01  6.5543260433E-01
                       7.5674541414E-01  8.2161425160E-01  1.7052573368E-01
                       1.6674805218E-01  6.4591299026E-01  8.3279585447E-01
                       9.9255204237E-01  1.9070544580E-01  3.0686515657E-01
                       4.8153155953E-01  2.8772027689E-01  6.4557934533E-01
                       4.3023024862E-02  6.2045693458E-01  3.7418489671E-01
                       4.9148176502E-01  8.7291806406E-01  8.5625122370E-01
                       3.9594388462E-01  9.8726324791E-01  2.4455018633E-01
                       1.6426851401E-01 -5.7147685010E-03  6.3664928960E-01
                       8.1873469891E-01  5.4276317688E-01  6.8660415369E-01
                       6.6330409281E-01  4.9664341157E-01  3.3058741229E-01
                       1.7300385949E-01  2.6536554470E-01  9.3699166252E-01
                       7.3205001711E-01  8.7310797355E-01  5.3092223776E-01
                       3.9469897357E-01  6.8107403180E-01  5.1082889024E-01
                       7.1836148627E-01  1.9125292660E-01 -8.3066196298E-03
                       1.0843123599E-01 -8.2192085734E-02  6.9651479430E-02
                       5.3542296843E-01  5.1395224413E-01  9.4103991390E-01
 
kptopt   1
            ngfft          72      75      75
ngkpt    2 2 2
nshiftk 1
shiftk 
0.5 0.5 0.5
ecut       30
ecutsm  0.5
pawecutdg  30
pawxcdev   0
ixc      -116133
nband    104
diemac   4

# First SCF run       
#irdwfk1   1
nstep1    100
iscf1     7
tolvrs1   1.0E-20

#Refinement using tolwfr
nstep2    250
getwfk2   -1
iscf2     7
tolwfr2   1.0E-20

# Printing flags
prtden    1
prteig    0
prtwf     1
prtposcar 0
prtcif    1
