#input for non-centrosymmetric orthorhombic HfO2

ndtset    2

autoparal 1

#Crystal Def.
ntypat   3
natom    26
typat    4*1 4*2 18*3
znucl    57 42 8
acell 3*1

rprim
  1.35742736388994E+01 -6.61189559302412E-01 -1.54363786130537E-02
 -6.85312517047008E-01  1.35784328338924E+01 -1.68125242771095E-01
 -2.48196052712257E-02 -1.65918353181744E-01  1.33052131908003E+01

             xred      8.3752499854E-01  8.9554171275E-01  8.7635741879E-01
                       3.8474989497E-01  6.7558692004E-01  1.2361142199E-01
                       1.3784294424E-01  3.1499941030E-01  6.3941038713E-01
                       6.6799940796E-01  1.0715230056E-01  3.7390251195E-01
                       2.0590089493E-01  2.0161162373E-01  1.7081853765E-01
                       6.1936419369E-01  3.1001497739E-01  8.3689863432E-01
                       8.8142015846E-01  6.8824072814E-01  3.4003736951E-01
                       2.9695150446E-01  7.9747872287E-01  6.6739957119E-01
                       2.9155314894E-01  4.0412453650E-01  3.1521512248E-01
                       8.0985036670E-01  2.0629932559E-01  6.8176885304E-01
                       6.9878030868E-01  8.1360777003E-01  1.7951176068E-01
                       2.1957006415E-01  6.0244008356E-01  8.1717906055E-01
                       1.0200111800E+00  1.3935898083E-01  3.3782939292E-01
                       4.6579820398E-01  2.4437206036E-01  6.2605016488E-01
                       3.9657271172E-02  7.4364322384E-01  1.3811656680E-01
                       4.8679926193E-01  8.7093514168E-01  8.2820414566E-01
                       3.5909999373E-01  1.0254948725E+00  1.8930267225E-01
                       1.4180031456E-01 -2.7800598346E-02  6.8753455122E-01
                       7.1430155406E-01  5.4478503082E-01  8.4784581430E-01
                       7.5769032736E-01  4.6579472039E-01  3.2680010809E-01
                       6.4849312877E-02  1.9146447074E-01  9.6175050792E-01
                       7.9860998615E-01  8.4369905023E-01  5.2699898571E-01
                       4.2280947003E-01  7.9388692586E-01  4.5221570952E-01
                       6.9750670005E-01  1.6523550553E-01  2.4678549415E-02
                       4.0344474630E-01  3.4637781305E-01  9.8187528368E-01
                       1.0761137920E+00  6.3565469114E-01  4.9868689835E-01
 
kptopt   1
            ngfft          72      75      75
ngkpt    2 2 2
nshiftk 1
shiftk 
0.5 0.5 0.5
ecut       30
ecutsm  0.5
pawecutdg  30
pawxcdev   0
ixc      -116133
nband    104
diemac   4

# First SCF run       
#irdwfk1   1
nstep1    100
iscf1     7
tolvrs1   1.0E-20

#Refinement using tolwfr
nstep2    250
getwfk2   -1
iscf2     7
tolwfr2   1.0E-20

# Printing flags
prtden    1
prteig    0
prtwf     1
prtposcar 0
prtcif    1
