#input for KTaO3

ndtset 2

autoparal 1

#Crystal Def.
ntypat   3
natom    104
typat    16*1 16*2 72*3
znucl    57 42 8
acell 3*1


rprim
  2.66785245671797E+01 -6.57966263358932E-01  6.60567832812599E-02
 -6.50778436652481E-01  2.72737540650277E+01 -8.55660116158634E-02
  2.67695479944484E-02 -4.25656381663346E-02  1.35867509557094E+01

             xred      4.2912736699E-01  4.3774833199E-01  8.2958717253E-01
                       1.4709900975E-01  3.0204874139E-01  1.1205014683E-01
                       1.0430733742E-01  1.6908761308E-01  5.9343365242E-01
                       3.2488550717E-01  6.0019057474E-02  3.3127262793E-01
                       9.1278075858E-01  4.3781627148E-01  8.7785163713E-01
                       6.8343417284E-01  3.3726167731E-01  1.7054675827E-01
                       5.6784903582E-01  2.0081776255E-01  7.0866255719E-01
                       8.2902326190E-01  7.5020666948E-02  3.7444075020E-01
                       4.3238095628E-01  9.3929815634E-01  8.4093731896E-01
                       1.8666023617E-01  8.2824714373E-01  1.4034045095E-01
                       9.6062023256E-02  6.7198172499E-01  6.0470772027E-01
                       3.2459279492E-01  5.6899842241E-01  3.3474247295E-01
                       9.0762939119E-01  9.3949146050E-01  8.6273398154E-01
                       6.5801264319E-01  8.1634278791E-01  1.9862621903E-01
                       5.5550964613E-01  6.8376150187E-01  6.5418574492E-01
                       8.0940127078E-01  5.7281831781E-01  3.4844625903E-01
                       9.2399289812E-02  6.3609216963E-02  1.5484699064E-01
                       3.2592948936E-01  1.7091745407E-01  7.8401070257E-01
                       4.0004903229E-01  3.2697325359E-01  3.0960843933E-01
                       1.5791911397E-01  4.0199047306E-01  6.5221482060E-01
                       6.0098065468E-01  9.5449310313E-02  1.8111716792E-01
                       8.4977502965E-01  1.6873435492E-01  8.2788478002E-01
                       9.1911642591E-01  3.3321056320E-01  3.2374585758E-01
                       6.7001211881E-01  4.2528907455E-01  7.0701726475E-01
                       8.3455471199E-02  5.4588398444E-01  1.7859071653E-01
                       3.1923734341E-01  6.6525735262E-01  8.1071204218E-01
                       4.2308601575E-01  8.4524386950E-01  2.9775985622E-01
                       1.3789901819E-01  8.9901476221E-01  6.9358297353E-01
                       5.7216041114E-01  5.8595862988E-01  1.9841639172E-01
                       8.4109567017E-01  6.7536421138E-01  8.2952954555E-01
                       9.0970028516E-01  8.2757273837E-01  3.3037737578E-01
                       6.7477599836E-01  9.3556293999E-01  7.1578928877E-01
                       6.9803765052E-02  3.4727478837E-01  8.0225516794E-01
                       1.7557840367E-01  1.5467395185E-01  2.7712741717E-01
                       3.2768200719E-01  3.4951808711E-01  1.1488843261E-01
                       4.2775928481E-01  9.6510603012E-02  6.9342527696E-01
                       5.8228327733E-01  3.5434694014E-01  8.6403924321E-01
                       6.2152938336E-01  1.4706345236E-01  4.0136351768E-01
                       8.3880055724E-01  4.1974678919E-01  2.1272370763E-01
                       9.3366884059E-01  1.4514543192E-01  6.4668209733E-01
                       5.9760459710E-02  8.1447005057E-01  7.9770671887E-01
                       1.5463734673E-01  6.4696573122E-01  2.5833167044E-01
                       3.4339940084E-01  9.1538684984E-01  1.3727060628E-01
                       4.1021975096E-01  5.8900864501E-01  6.9387021257E-01
                       5.7362422129E-01  8.5270109773E-01  7.4556026466E-01
                       6.5681715627E-01  6.5918712126E-01  3.6175640070E-01
                       8.7248942357E-01  9.2721210937E-01  2.0901932763E-01
                       9.1994259459E-01  6.4615899373E-01  6.4462928527E-01
                       7.9828975989E-02  1.4396152063E-01  9.6508140309E-01
                       9.9691200064E-01  6.9537668149E-02  3.1451025372E-01
                       1.8180283976E-01  9.8319043530E-01  2.5708965856E-01
                       3.9587833747E-01  4.2096555711E-01  4.7177383747E-01
                       3.6132735031E-01  2.2280936120E-01  4.1776489032E-01
                       5.1582528862E-01  3.0672991020E-01  2.3735278302E-01
                       3.1760822519E-01  1.2366824317E-01  6.9246018035E-03
                       4.1639286351E-01  2.6845537021E-01  7.7913348373E-01
                       2.4890506551E-01  9.4981340086E-02  6.2568518748E-01
                       2.5888257152E-01  4.4315208513E-01  7.7365151751E-01
                       1.8272022473E-01  3.2877322047E-01  4.6059363203E-01
                       1.0725779330E-01  5.0158094442E-01  5.6282762469E-01
                       1.0980112800E-02  4.0624792102E-01  1.5305991195E-01
                       9.2110601424E-01  3.7722319861E-01  5.4940045638E-01
                       8.2231962961E-01  2.4340084791E-01  3.1047492859E-01
                       4.8161257439E-01  5.9328324273E-02  1.4552211304E-01
                       6.3780602933E-01  1.8482651667E-01  1.0223249089E+00
                       6.8014986584E-01  1.0053598018E+00  1.7839571662E-01
                       7.5377922752E-01  3.8822987420E-01  8.8954836432E-01
                       6.5269303798E-01  3.4559601774E-01  5.1845156936E-01
                       5.8500591541E-01  5.1520228012E-01  7.0624058099E-01
                       8.5003621977E-01  8.7512228768E-02  1.6859030317E-02
                       8.9301679226E-01  2.7151534454E-01  9.3880434107E-01
                       7.4434111735E-01  1.9623512229E-01  7.1779689144E-01
                       3.2840814573E-01  5.9708142213E-01  1.4815909369E-02
                       3.9739748887E-01  7.6595643570E-01  8.0429967863E-01
                       2.5138397131E-01  6.3468463779E-01  5.8964331498E-01
                       1.8288901362E-01  4.7016858333E-01  1.9738120252E-01
                       5.2291967818E-02  5.6378612059E-01  9.4271058024E-01
                       9.8229643505E-01  5.6966935677E-01  3.2157451162E-01
                       3.9988736185E-01  9.2571397898E-01  4.8660296990E-01
                       3.3874323786E-01  7.4925888246E-01  2.8564701246E-01
                       5.1145295635E-01  8.7070820757E-01  1.0426943197E-01
                       7.0463337781E-02 -3.7823874415E-03  6.4113135226E-01
                       2.4012419454E-01  9.1858712662E-01  8.3370629913E-01
                       1.7239342272E-01  8.3201740303E-01  4.9684768480E-01
                       6.6506453874E-01  4.9997256119E-01  2.1024595243E-01
                       4.8391921606E-01  6.1663128047E-01  3.7143955474E-01
                       5.8287256645E-01  6.7105866877E-01  1.0182824445E+00
                       8.3629326977E-01  5.8461229557E-01 -2.9771512678E-03
                       8.8591124832E-01  7.7509057540E-01  9.4662752963E-01
                       7.2958582247E-01  6.9666062003E-01  7.3879513240E-01
                       6.0271808607E-01  3.1968049962E-02  7.7628102189E-01
                       7.4009877480E-01  8.8610739184E-01  9.0454138066E-01
                       6.9763811592E-01  9.0180322764E-01  4.7773319600E-01
                       2.2692526913E-02  7.8908951283E-01  2.7421931714E-01
                       9.1050488746E-01  8.5733806835E-01  5.6602013066E-01
                       8.1927264305E-01  7.3982801816E-01  2.9705403597E-01
                       6.0756270248E-02 -4.1045099543E-02  1.4215741770E-02
                       2.2535277256E-01  2.5043617040E-01  7.9195105769E-01
                       1.0169551471E+00  2.5638925752E-01  3.2670099955E-01
                       7.7285086298E-01  5.0126401978E-01  6.3356677384E-01
                       2.0565378385E-01  7.1633120653E-01  8.7787484660E-01
                       5.2473120002E-01  7.9424396548E-01  4.0880325054E-01
                       4.8380432825E-01  4.9830701315E-01  1.1483310279E-01
                       7.9506167910E-01  1.0194178254E+00  6.7747501740E-01
 
nshiftk 1
shiftk 
0.5 0.5 0.5
#chksymbreak 0
kptopt   1
ngkpt    1 1 1

ecut 30
ixc      -116133
nband    420
nstep    150
diemac   4


# Data set 1 - Refinement of already computed GS WFs       
irdwfk1 1
irdden1 1
iscf1     7
tolvrs1   1.0E-20
nstep1    100


rfphon2   1            # Will consider phonon-type perturbation 

rfdir2    1   1   1    # Along all reduced coordinate axis 
rfatpol2 25 32

nqpt2     1            # One wavevector is to be considered 
qpt2      0.0 0.0 0.0  # This wavevector is q=0 (Gamma) 

kptopt2   2            # Automatic generation of k points, taking 
                       # into account the time-reversal symmetry only 

getwfk2   1            # Read the ground-state wavefunctions 
getddk2   2
                                              
tolvrs2   1.0d-20      # SCF stopping criterion 
                       



# Printing flags
prtden    1
prteig    0
prtwf     1
prtposcar 0
prtcif    0

ecutsm   0.5
            ngfft         144     144      72
pawecutdg  30
pawxcdev   0
