#input for non-centrosymmetric orthorhombic HfO2

ndtset    2

autoparal 1

#Crystal Def.
ntypat   3
natom    26
typat    4*1 4*2 18*3
znucl    57 42 8
acell 3*1

rprim
  1.32222825897488E+01  0.00000000000000E+00  0.00000000000000E+00
  0.00000000000000E+00  1.36035712138408E+01  6.96489369766015E-01
  0.00000000000000E+00  7.23310126472329E-01  1.36005531420060E+01

             xred      8.6899441738E-01  8.7138263557E-01  8.1928187291E-01
                       3.6899441738E-01  6.2861736443E-01  1.8071812709E-01
                       1.2432518465E-01  3.3495185677E-01  6.0449172511E-01
                       6.2432518465E-01  1.6504814323E-01  3.9550827489E-01
                       1.6186010373E-01  1.1979002301E-01  1.8926507969E-01
                       6.6186010373E-01  3.8020997699E-01  8.1073492031E-01
                       8.3098178103E-01  7.0529766759E-01  2.9838463122E-01
                       3.3098178103E-01  7.9470233241E-01  7.0161536878E-01
                       3.1972870001E-01  3.0639350551E-01  3.0294372403E-01
                       8.1972870001E-01  1.9360649449E-01  6.9705627597E-01
                       6.8281974787E-01  7.8569398096E-01  9.8918234999E-02
                       1.8281974787E-01  7.1430601904E-01  9.0108176500E-01
                       9.7305166583E-01  1.9976887967E-01  3.3884288559E-01
                       4.7305166583E-01  3.0023112033E-01  6.6115711441E-01
                       4.3439050560E-02  5.7067636228E-01  3.0158163011E-01
                       5.4343905056E-01  9.2932363772E-01  6.9841836989E-01
                       3.6930683933E-01  9.6391377257E-01  2.5120576041E-01
                       1.6628966123E-01 -1.7257468267E-02  6.3362538755E-01
                       8.6930683933E-01  5.3608622743E-01  7.4879423959E-01
                       6.6628966123E-01  5.1725746827E-01  3.6637461245E-01
                       1.6345297144E-01  2.2908794888E-01  9.6039006084E-01
                       8.1151417246E-01  8.5815091464E-01  4.7352772439E-01
                       3.1151417246E-01  6.4184908536E-01  5.2647227561E-01
                       6.6345297144E-01  2.7091205112E-01  3.9609939164E-02
                       9.2357044877E-03 -8.5762375411E-02  1.4502745158E-01
                       5.0923570449E-01  5.8576237541E-01  8.5497254842E-01
 
kptopt   1
            ngfft          72      75      75
ngkpt    2 2 2
nshiftk 1
shiftk 
0.5 0.5 0.5
ecut       30
ecutsm  0.5
pawecutdg  30
pawxcdev   0
ixc      -116133
nband    104
diemac   4

# First SCF run       
#irdwfk1   1
nstep1    100
iscf1     7
tolvrs1   1.0E-20

#Refinement using tolwfr
nstep2    250
getwfk2   -1
iscf2     7
tolwfr2   1.0E-20

# Printing flags
prtden    1
prteig    0
prtwf     1
prtposcar 0
prtcif    1
