#input for KTaO3

ndtset    3

autoparal 1

#Crystal Def.
ntypat   3
natom    26
typat    4*1 4*2 18*3
znucl    57 42 8
acell 3*1


rprim
  1.33307688590507E+01  0.00000000000000E+00  0.00000000000000E+00
  0.00000000000000E+00  1.35364096571086E+01  3.24415886748893E-01
  0.00000000000000E+00  3.50770310536099E-01  1.35461182643940E+01

             xred      8.7066963751E-01  8.8097963319E-01  8.2334799353E-01
                       3.7066963751E-01  6.1902036681E-01  1.7665200647E-01
                       1.2727519858E-01  3.3870925359E-01  6.0947802282E-01
                       6.2727519858E-01  1.6129074641E-01  3.9052197718E-01
                       1.6135767803E-01  1.1767879044E-01  1.8956903043E-01
                       6.6135767803E-01  3.8232120956E-01  8.1043096957E-01
                       8.3081898488E-01  7.0057419517E-01  2.9587379692E-01
                       3.3081898488E-01  7.9942580483E-01  7.0412620308E-01
                       3.2041326371E-01  3.0328219863E-01  3.0727018916E-01
                       8.2041326371E-01  1.9671780137E-01  6.9272981084E-01
                       6.8285147632E-01  7.8036729652E-01  1.0084453657E-01
                       1.8285147632E-01  7.1963270348E-01  8.9915546343E-01
                       9.7539430893E-01  2.0394649642E-01  3.4376198198E-01
                       4.7539430893E-01  2.9605350358E-01  6.5623801802E-01
                       4.5221288589E-02  5.7255951738E-01  2.9093829072E-01
                       5.4522128859E-01  9.2744048262E-01  7.0906170928E-01
                       3.6499949756E-01  9.5883249168E-01  2.4483446925E-01
                       1.6954489913E-01 -1.4074034126E-02  6.3633770395E-01
                       8.6499949756E-01  5.4116750832E-01  7.5516553075E-01
                       6.6954489913E-01  5.1407403413E-01  3.6366229605E-01
                       1.5968877017E-01  2.2276933548E-01  9.6243579874E-01
                       8.1340812234E-01  8.5887779679E-01  4.7634304198E-01
                       3.1340812234E-01  6.4112220321E-01  5.2365695802E-01
                       6.5968877017E-01  2.7723066452E-01  3.7564201260E-02
                       3.3568742793E-03 -8.4899916017E-02  1.4623568689E-01
                       5.0335687428E-01  5.8489991602E-01  8.5376431311E-01
 
#chksymbreak 0
kptopt   1
ngkpt    2 2 2
nshiftk 1
shiftk
0.5 0.5 0.5

ecut 30
ixc      -116133
nband    104
nstep    150
diemac   4


# Data set 1 - Refinement of already computed GS WFs       
irdwfk1   0
irdden1   0
iscf1     7
tolvrs1   1.0E-20
nstep1    100

# Data Set 2: Response Function calculation : d/dk 
rfelfd2    2 
rfdir2     1    1    1 

nqpt2      1 
qpt2       0.0  0.0  0.0  

getwfk2   -1 
getden2   -1 

kptopt2    2 

iscf2     -3 

tolwfr2    1.0d-22 

# Data set 3 : Response Function calculation - electric field perturbation, phonons, and strain

rfphon3   1            # Will consider phonon-type perturbation 
rfelfd3   3            # Electric Field
rfstrs3   3            # Strains

rfdir3    1   1   1    # Along all reduced coordinate axis 
rfatpol3  1   26        # All the atoms will be displaced 

nqpt3     1            # One wavevector is to be considered 
qpt3      0.0 0.0 0.0  # This wavevector is q=0 (Gamma) 

kptopt3   2            # Automatic generation of k points, taking 
                       # into account the time-reversal symmetry only 

getwfk3   1            # Read the ground-state wavefunctions 
getddk3   2
                                              
tolvrs3   1.0d-20      # SCF stopping criterion 
                       



# Printing flags
prtden    1
prteig    0
prtwf     1
prtposcar 0
prtcif    0

ecutsm   0.5
            ngfft          72      75      75
pawecutdg  30
pawxcdev   0
