#input for non-centrosymmetric orthorhombic HfO2

ndtset    2

autoparal 1

#Crystal Def.
ntypat   3
natom    26
typat    4*1 4*2 18*3
znucl    57 42 8
acell 3*1

rprim
  1.31989544482666E+01 -6.42218224871512E-02  2.52793250771718E-01
 -6.89808915942623E-02  1.36274905112856E+01 -2.29283207181259E-01
  2.81685977377164E-01 -2.29264236419990E-01  1.36739696995023E+01

             xred      8.7518750503E-01  8.4721266889E-01  8.7024029538E-01
                       3.4051329372E-01  6.1836963555E-01  1.9506365519E-01
                       1.4181294829E-01  3.5173782012E-01  6.4004738136E-01
                       6.4060104276E-01  1.1845471941E-01  3.1279576132E-01
                       1.3558613318E-01  1.7751654324E-01  1.8775983240E-01
                       6.6081372058E-01  3.2748524065E-01  8.0690487616E-01
                       8.5101886661E-01  6.7986145299E-01  3.2557811131E-01
                       3.6600388161E-01  8.5598586217E-01  7.0718212642E-01
                       2.9871074469E-01  6.3983760586E-01  8.0485589152E-01
                       3.1776533289E-01  3.1350239181E-01  3.3757895813E-01
                       6.6582136772E-01  7.8856135022E-01  1.6090469321E-01
                       8.5479006767E-01  1.7888367670E-01  7.5981825529E-01
                       1.6661168347E-02  6.8875000300E-01  1.1334627463E-01
                       2.8582862651E-01  9.8006479720E-01  1.5633593553E-01
                       8.0753716353E-01  8.6825724455E-01  4.8989835906E-01
                       7.7157137272E-01  5.4371621748E-01  7.6031586941E-01
                       5.5596677166E-01  9.5208313798E-01  8.3135676211E-01
                       9.7316430567E-01  2.1369944615E-01  4.0026455346E-01
                       7.0085074499E-01  4.8505619626E-01  3.6161655154E-01
                       1.7089281899E-01  3.4115994405E-01  1.0081905064E+00
                       4.8268864082E-01  2.6912232266E-01  6.4488156897E-01
                       1.6752822150E-01  5.0256238229E-03  7.3603437211E-01
                       1.0777146705E+00  6.0852164056E-01  4.4332337992E-01
                       5.7352763019E-01  3.3057919186E-01  3.8373027027E-02
                       4.2611613069E-01  8.3803149977E-01  4.6914168080E-01
                      -9.3835556306E-02  8.1384140518E-02  1.0965942809E+00
 
kptopt   1
            ngfft          72      75      75
ngkpt    2 2 2
nshiftk 1
shiftk 
0.5 0.5 0.5
ecut       30
ecutsm  0.5
pawecutdg  30
pawxcdev   0
ixc      -116133
nband    104
diemac   4

# First SCF run       
#irdwfk1   1
nstep1    100
iscf1     7
tolvrs1   1.0E-20

#Refinement using tolwfr
nstep2    250
getwfk2   -1
iscf2     7
tolwfr2   1.0E-20

# Printing flags
prtden    1
prteig    0
prtwf     1
prtposcar 0
prtcif    1
