#input for KTaO3

ndtset    3

autoparal 1

#Crystal Def.
ntypat   3
natom    26
typat    4*1 4*2 18*3
znucl    57 42 8
acell 3*1


rprim
  1.35529442024537E+01  1.27538703618239E-02  6.99394277669120E-01
  1.24963159848907E-02  1.33566401594436E+01 -1.42115712925236E-03
  6.92337565600919E-01 -1.35900761412472E-03  1.35616102261416E+01

             xred      8.1800012379E-01  8.6912957848E-01  8.7094307440E-01
                       3.9514450360E-01  6.2390378918E-01  1.6443059790E-01
                       1.8099360788E-01  3.7079362535E-01  6.2665371914E-01
                       6.0511343051E-01  1.2413027594E-01  3.3495918941E-01
                       1.8927963860E-01  1.6101003082E-01  1.1956798626E-01
                       7.0251352946E-01  3.3090517232E-01  7.9493678698E-01
                       8.1036294003E-01  6.6134372870E-01  3.8054571213E-01
                       2.9764125001E-01  8.3151771035E-01  7.0439563186E-01
                       3.0575671067E-01  3.1919541417E-01  3.0539762059E-01
                       9.0216863790E-01  1.8397645989E-01  7.1297129312E-01
                       6.9644940906E-01  8.1888325343E-01  1.9370405980E-01
                       9.8438405856E-02  6.8428713987E-01  7.8503216667E-01
                       9.6077750249E-01  1.6436910739E-01  2.3206315362E-01
                       5.2699813871E-01  3.1145341037E-01  6.4097240661E-01
                       4.0378030611E-02  6.6237981037E-01  2.7157559202E-01
                       4.7252695750E-01  8.1091104006E-01  8.5912029897E-01
                       3.3954248213E-01  9.7429207808E-01  2.0043214665E-01
                       3.0097068741E-01  4.4102512351E-02  5.7297410702E-01
                       6.9790278569E-01  5.4252189728E-01  9.2838907690E-01
                       6.6141305076E-01  4.7428762250E-01  3.0008480747E-01
                       2.4956708823E-01  3.6639361217E-01  9.6266059157E-01
                       7.4848919095E-01  8.6727250756E-01  5.3722621685E-01
                       3.6644919725E-01  6.6873678997E-01  5.1567429168E-01
                       6.3488263965E-01  1.6704969852E-01 -1.6928593575E-02
                       1.4295799160E-01  7.7396701080E-03 -8.3874448658E-02
                       8.5528206966E-01  5.0941406481E-01  5.8609251463E-01
 
nshiftk 1
shiftk 
0.5 0.5 0.5
#chksymbreak 0
kptopt   1
ngkpt    2 2 2

ecut 30
ixc      -116133
nband    104
nstep    150
diemac   4


# Data set 1 - Refinement of already computed GS WFs       
irdwfk1   0
irdden1   0
iscf1     7
tolvrs1   1.0E-20
nstep1    100

# Data Set 2: Response Function calculation : d/dk 
rfelfd2    2 
rfdir2     1    1    1 

nqpt2      1 
qpt2       0.0  0.0  0.0  

getwfk2   -1 
getden2   -1 

kptopt2    2 

iscf2     -3 

tolwfr2    1.0d-22 

# Data set 3 : Response Function calculation - electric field perturbation, phonons, and strain

rfphon3   1            # Will consider phonon-type perturbation 
rfelfd3   3            # Electric Field
rfstrs3   3            # Strains

rfdir3    1   1   1    # Along all reduced coordinate axis 
rfatpol3  1   26        # All the atoms will be displaced 

nqpt3     1            # One wavevector is to be considered 
qpt3      0.0 0.0 0.0  # This wavevector is q=0 (Gamma) 

kptopt3   2            # Automatic generation of k points, taking 
                       # into account the time-reversal symmetry only 

getwfk3   1            # Read the ground-state wavefunctions 
getddk3   2
                                              
tolvrs3   1.0d-20      # SCF stopping criterion 
                       



# Printing flags
prtden    1
prteig    0
prtwf     1
prtposcar 0
prtcif    0

ecutsm  0.5
            ngfft          72      75      75
pawecutdg  30
pawxcdev   0
