#input for non-centrosymmetric orthorhombic HfO2

ndtset    2

autoparal 1

#Crystal Def.
ntypat   3
natom    26
typat    4*1 4*2 18*3
znucl    57 42 8
acell 3*1

rprim
  1.35470530091670E+01 -6.89082880362286E-01  3.46567754144417E-03
 -7.13532455901009E-01  1.35448879006975E+01  6.26501290941650E-03
  2.54697143754069E-03  6.43369433825486E-03  1.34016441673981E+01

             xred      8.3495535143E-01  8.9508910358E-01  8.7625120629E-01
                       3.7161630488E-01  6.8233936787E-01  1.3021641739E-01
                       1.2797276012E-01  3.1804932771E-01  6.2908775745E-01
                       6.6502724752E-01  1.0503147717E-01  3.7607609267E-01
                       2.0553430046E-01  2.0307808156E-01  1.6807293938E-01
                       6.2008919695E-01  3.1090784487E-01  8.3873639008E-01
                       8.7991830250E-01  6.8916958407E-01  3.3935159911E-01
                       2.9456999254E-01  7.9680434377E-01  6.6906920349E-01
                       2.8641748345E-01  4.0257170771E-01  3.1500728440E-01
                       8.0600238274E-01  1.9474190255E-01  6.8099846150E-01
                       6.9382063382E-01  8.0487461698E-01  1.8135430101E-01
                       2.1298799249E-01  5.9714764779E-01  8.1582533325E-01
                       1.0163581332E+00  1.3516645409E-01  3.3074135008E-01
                       4.6275284089E-01  2.5013042312E-01  6.3404911042E-01
                       3.7233637767E-02  7.5072866516E-01  1.3452791257E-01
                       4.8282551013E-01  8.6545675539E-01  8.3230994140E-01
                       3.5999067944E-01  1.0280097666E+00  1.8977591260E-01
                       1.3989317242E-01 -2.8141034741E-02  6.8823542792E-01
                       7.3182360462E-01  5.4003527273E-01  8.3590418579E-01
                       7.6853476797E-01  4.5986651556E-01  3.3701569543E-01
                       7.4009441941E-02  1.9734403412E-01  9.5593697723E-01
                       7.9950443332E-01  8.3897864928E-01  5.2539035843E-01
                       4.2699705636E-01  8.0155627790E-01  4.5751151803E-01
                       7.0071971163E-01  1.6107051294E-01  2.4963408923E-02
                       4.1623516674E-01  3.5699582428E-01  9.9185528598E-01
                       1.0842098945E+00  6.4299687797E-01  4.9173592917E-01
 
kptopt   1
            ngfft          72      75      75
ngkpt    2 2 2
nshiftk 1
shiftk 
0.5 0.5 0.5
ecut       30
ecutsm  0.5
pawecutdg  30
pawxcdev   0
ixc      -116133
nband    104
diemac   4

# First SCF run       
#irdwfk1   1
nstep1    100
iscf1     7
tolvrs1   1.0E-20

#Refinement using tolwfr
nstep2    250
getwfk2   -1
iscf2     7
tolwfr2   1.0E-20

# Printing flags
prtden    1
prteig    0
prtwf     1
prtposcar 0
prtcif    1
