#input for non-centrosymmetric orthorhombic HfO2

ndtset    1
autoparal 1

#Crystal Def.

nsym      1
ntypat   3
natom    26
typat    4*1 4*2 18*3
znucl    57 42 8

acell 3*1


rprim
  1.34987617747608E+01  3.20320296785243E-01  2.37392859683240E-02
  3.20320296785243E-01  1.36506469385559E+01  3.64668891305222E-01
  2.37392859683240E-02  3.64668891305222E-01  1.33931551243247E+01

xred     
8.5203501135E-01  9.1088306855E-01  8.4519576012E-01
3.4108578235E-01  6.6874120756E-01  1.7106692901E-01
1.2884964516E-01  3.4147138418E-01  5.9745633388E-01
6.4778963042E-01  1.6348229276E-01  3.4036184776E-01
1.9059964709E-01  1.4308771826E-01  1.5788867715E-01
6.6255576644E-01  3.5988429358E-01  7.9279633696E-01
8.0014646830E-01  6.8515820728E-01  3.8311313968E-01
3.1530372336E-01  8.0102204860E-01  7.0720776802E-01
3.2278721946E-01  3.3031814062E-01  2.8380805867E-01
8.3998965091E-01  1.9218557300E-01  6.5584359013E-01
7.5510739246E-01  8.2146452845E-01  1.7180262339E-01
1.6489560044E-01  6.4797088693E-01  8.3314277124E-01
9.9215634875E-01  1.9174831446E-01  3.0680176309E-01
4.8034689364E-01  2.8725707275E-01  6.4545772438E-01
4.3890444398E-02  6.2092289931E-01  3.7399599657E-01
4.9214028959E-01  8.7210788536E-01  8.5725069070E-01
3.9656723603E-01  9.8759897351E-01  2.4435256946E-01
1.6605827201E-01 -5.7673264154E-03  6.3548513097E-01
8.1866450416E-01  5.4112458117E-01  6.8550145596E-01
6.6383661426E-01  4.9619689950E-01  3.3038902858E-01
1.7301367214E-01  2.6532811588E-01  9.3595598262E-01
7.3283532376E-01  8.7281468661E-01  5.3197023887E-01
3.9651076998E-01  6.8068068254E-01  5.1123238718E-01
7.1763116434E-01  1.9140739595E-01 -8.0637598347E-03
1.0770969186E-01 -8.0959216893E-02  7.0593162477E-02
5.3349323731E-01  5.1386968645E-01  9.3939379297E-01










kptopt   1
ngfft          72      75      75

ngkpt    2 2 2
nshiftk 1
shiftk 
0.5 0.5 0.5

ecut       30
pawecutdg  30
pawxcdev   0
ixc      -116133
nband    104
diemac   4

ecutsm  0.5
nstep    100
iscf     7
tolvrs   1.0E-20
ionmov   2
optcell  2
dilatmx  1.04
tolmxf   1e-8
ntime    250
strtarget  3*0.0 -1.69946e-05 2*0.0



# Printing flags
prtden    1
prteig    0
prtwf     1
prtposcar 0
prtcif    1
