#input for non-centrosymmetric orthorhombic HfO2

ndtset    1
autoparal 1

#Crystal Def.

nsym      1
ntypat   3
natom    26
typat    4*1 4*2 18*3
znucl    57 42 8

acell 3*1

rprim
  1.33356439606745E+01  1.69823887487549E-04  9.51084654089420E-04
 -8.57727817165673E-05  1.34730812925824E+01 -6.84209741083025E-01
  1.06471459542631E-03 -7.01788725292062E-01  1.36054507509415E+01

xred      
  8.76393186217767E-01  8.35683684585509E-01  8.94965276759545E-01
  3.76340483001667E-01  6.64399639100523E-01  1.05215889181313E-01
  1.31007141633598E-01  3.70576948913166E-01  6.80995489950210E-01
  6.30684743419938E-01  1.29272270237486E-01  3.19002297445921E-01
  1.68351500215264E-01  2.05305134850144E-01  2.02890035872009E-01
  6.68457607084929E-01  2.95060426676789E-01  7.96949481285592E-01
  8.38751092927625E-01  6.20433983510672E-01  3.10791520543292E-01
  3.38821399065035E-01  8.79293394514204E-01  6.89359017123287E-01
  3.16121044759001E-01  2.88538674818169E-01  4.01009317316186E-01
  8.16096390333973E-01  2.11490238426658E-01  5.98845844269539E-01
  6.81111542442677E-01  8.06381678206435E-01  1.94862995969054E-01
  1.81161285264183E-01  6.93534317331732E-01  8.05390324449500E-01
  9.56282842235258E-01  7.12973334551287E-02  1.96554491311976E-01
  4.56650536290506E-01  4.29431082474876E-01  8.02759383969500E-01
  2.62840141691826E-02  6.99924189044964E-01  1.61674804774710E-01
  5.26277286828871E-01  8.00312482393228E-01  8.38773231071653E-01
  3.32708374126380E-01  1.01589884957876E+00  1.36136620321539E-01
  1.32540661197609E-01  3.69995726047927E-02  7.50788617608571E-01
  8.33015415504660E-01  4.84249391524234E-01  8.63954535916062E-01
  6.32774766674166E-01  4.62541283837848E-01  2.49055298573252E-01
  1.88297399000499E-01  3.58938160877374E-01  1.02711601329740E+00
  8.36870094392780E-01  7.31991684676650E-01  5.39024458996364E-01
  3.37168838270532E-01  7.67260672426322E-01  4.61255839205700E-01
  6.87766930128711E-01  1.41164393384457E-01 -2.74590030099266E-02
  9.90201700674122E-01  4.13460057059240E-01  3.56583613644601E-01
  4.89863724097176E-01  1.08656045544363E+00  6.43504604221042E-01
kptopt   1
            ngfft          72      75      75

ngkpt    2 2 2
nshiftk 1
shiftk 
0.5 0.5 0.5

ecut       30
pawecutdg  30
pawxcdev   0
ixc      -116133
nband    104
diemac   4

ecutsm  0.5
nstep    100
iscf     7
tolvrs   1.0E-20
ionmov   2
optcell  2
dilatmx  1.04
tolmxf   1e-8
ntime    150
strtarget 0.0 -3.39893e-05 4*0.0 



# Printing flags
prtden    1
prteig    0
prtwf     1
prtposcar 0
prtcif    1
