#input for KTaO3

ndtset    3

autoparal 1

#Crystal Def.
ntypat   3
natom    26
typat    4*1 4*2 18*3
znucl    57 42 8
acell 3*1


rprim
  1.32531729218845E+01 -7.75941470729144E-02 -3.68025174719584E-01
 -5.86942818542672E-02  1.36359111563791E+01 -5.36767715062032E-01
 -3.69688586981735E-01 -5.61959010427852E-01  1.36117180539405E+01

             xred      8.7712313390E-01  8.4238325230E-01  8.9068444120E-01
                       3.6649838502E-01  6.7510283489E-01  1.2080691755E-01
                       1.2036965398E-01  4.1450005220E-01  6.6100290385E-01
                       6.5259982627E-01  1.4744768200E-01  3.1041939744E-01
                       1.7303969422E-01  2.0748311452E-01  1.9705297242E-01
                       6.7080657836E-01  3.0391238432E-01  7.9569298654E-01
                       8.3357325884E-01  6.1843323887E-01  3.1003020150E-01
                       3.4344018530E-01  8.8079662563E-01  6.9047288452E-01
                       3.1225601317E-01  2.9886584164E-01  4.0173736324E-01
                       8.2090563206E-01  2.3096034848E-01  6.0690885812E-01
                       6.7929464785E-01  8.1582181551E-01  2.3296332509E-01
                       1.7755535618E-01  7.0324461172E-01  8.3220811029E-01
                       9.6471563682E-01  5.9503806445E-02  1.7823470638E-01
                       4.5112756891E-01  4.1508555301E-01  7.6788069264E-01
                       1.9072038509E-02  6.9959754740E-01  1.7037942067E-01
                       5.2759768617E-01  7.9668285671E-01  8.5731429489E-01
                       3.4248942037E-01  1.0238753959E+00  1.4856345243E-01
                       1.4513976390E-01  3.6309902589E-02  7.3739118836E-01
                       8.2469706169E-01  4.9309776382E-01  8.8039071742E-01
                       6.1856834198E-01  4.6951267715E-01  2.3711009539E-01
                       1.9452939255E-01  3.6003725672E-01  1.0194519940E+00
                       8.6694574682E-01  6.8404444359E-01  5.5246265269E-01
                       3.0909869725E-01  7.3247538139E-01  4.8408881448E-01
                       6.8082822486E-01  1.4322805342E-01 -3.1959390862E-02
                       9.7008597210E-01  3.9084070268E-01  3.2942644709E-01
                       5.0763308293E-01  1.0567938571E+00  6.1927455266E-01
 
nshiftk 1
shiftk 
0.5 0.5 0.5
#chksymbreak 0
kptopt   1
ngkpt    2 2 2

ecut 30
ixc      -116133
nband    104
nstep    150
diemac   4


# Data set 1 - Refinement of already computed GS WFs       
irdwfk1   0
irdden1   0
iscf1     7
tolvrs1   1.0E-20
nstep1    100

# Data Set 2: Response Function calculation : d/dk 
rfelfd2    2 
rfdir2     1    1    1 

nqpt2      1 
qpt2       0.0  0.0  0.0  

getwfk2   -1 
getden2   -1 

kptopt2    2 

iscf2     -3 

tolwfr2    1.0d-22 

# Data set 3 : Response Function calculation - electric field perturbation, phonons, and strain

rfphon3   1            # Will consider phonon-type perturbation 
rfelfd3   3            # Electric Field
rfstrs3   3            # Strains

rfdir3    1   1   1    # Along all reduced coordinate axis 
rfatpol3  1   26        # All the atoms will be displaced 

nqpt3     1            # One wavevector is to be considered 
qpt3      0.0 0.0 0.0  # This wavevector is q=0 (Gamma) 

kptopt3   2            # Automatic generation of k points, taking 
                       # into account the time-reversal symmetry only 

getwfk3   1            # Read the ground-state wavefunctions 
getddk3   2
                                              
tolvrs3   1.0d-20      # SCF stopping criterion 
                       



# Printing flags
prtden    1
prteig    0
prtwf     1
prtposcar 0
prtcif    0

ecutsm  0.5
            ngfft          72      75      75
pawecutdg  30
pawxcdev   0
