#input for non-centrosymmetric orthorhombic HfO2

ndtset    1
autoparal 1

#Crystal Def.

nsym      1
ntypat   3
natom    26
typat    4*1 4*2 18*3
znucl    57 42 8

acell 3*1

rprim
  1.35513483191677E+01  1.37162182004545E-02  7.11736309185744E-01
  1.35129148535343E-02  1.32998092435629E+01 -1.88455863350867E-03
  7.01033937463550E-01 -1.76974957607442E-03  1.36303864366448E+01

             xred  
  8.17826249950711E-01  8.68979857530677E-01  8.71083824714914E-01
  3.95475832405156E-01  6.24135806369280E-01  1.64846955465972E-01
  1.80972605045927E-01  3.70678128964771E-01  6.26154850126170E-01
  6.04859839271740E-01  1.24437654691959E-01  3.34594881862608E-01
  1.89218344819922E-01  1.61345868398768E-01  1.19265795752415E-01
  7.02142783973527E-01  3.30634345261820E-01  7.94708929108610E-01
  8.10431053687463E-01  6.61752980761881E-01  3.80783296559904E-01
  2.98039362736127E-01  8.31190103688617E-01  7.04582862066109E-01
  3.04907665175492E-01  3.19560335674420E-01  3.05515570719200E-01
  9.02383796140875E-01  1.83413949782670E-01  7.13871443392092E-01
  6.97487121684110E-01  8.19251938384346E-01  1.93683406437590E-01
  9.80836394674763E-02  6.83807665970623E-01  7.83600624349875E-01
  9.60499454691299E-01  1.64829517563043E-01  2.30915046775496E-01
  5.26723878023055E-01  3.10977876041062E-01  6.41556990497196E-01
  4.08130230238762E-02  6.62724437729812E-01  2.73036898453279E-01
  4.72563883704008E-01  8.10529938361880E-01  8.58828420040431E-01
  3.39605577544026E-01  9.73941114873145E-01  2.00336288382423E-01
  3.00297223784438E-01  4.40318565229639E-02  5.72959968485456E-01
  6.98469369015425E-01  5.42536598193780E-01  9.28409644402324E-01
  6.61488786376599E-01  4.73933445340000E-01  3.00117299687219E-01
  2.50035834996518E-01  3.67400735267777E-01  9.63496231169781E-01
  7.47962900846963E-01  8.68286218202956E-01  5.36539643176061E-01
  3.67349956036076E-01  6.68278581582904E-01  5.16498639855289E-01
  6.34374963244104E-01  1.66638447022323E-01 -1.76790692149689E-02
  1.43566490868701E-01  7.50394896411669E-03 -8.33327849491341E-02
  8.54420363499341E-01  5.09198648880732E-01  5.85624342684655E-01


kptopt   1
ngkpt    2 2 2
nshiftk 1
shiftk 
0.5 0.5 0.5

ecut       30
pawecutdg  30
pawxcdev   0
ixc      -116133
nband    104
diemac   4

ecutsm  0.5
nstep    100
iscf     7
tolvrs   1.0E-20
ionmov   2
optcell  2
dilatmx  1.04
tolmxf   1e-8
ntime    150
strtarget 2*0.00 1*1.69946e-05  3*0.0



# Printing flags
prtden    1
prteig    0
prtwf     1
prtposcar 0
prtcif    1
