#input for non-centrosymmetric orthorhombic HfO2

ndtset    1
autoparal 1

#Crystal Def.

nsym      1
ntypat   3
natom    26
typat    4*1 4*2 18*3
znucl    57 42 8

acell 3*1

rprim
  1.35735332043327E+01 -3.54731644234229E-02  7.04320884786680E-01
 -4.27487115687720E-02  1.33111169395878E+01  1.52563995497283E-01
  6.97478085696155E-01  1.52770837286239E-01  1.35753394257953E+01

             xred  
  8.19029380412923E-01  8.71604636414318E-01  8.72422127586003E-01
  3.95659368553753E-01  6.24293525186211E-01  1.65601227552331E-01
  1.82009446316198E-01  3.65494828334816E-01  6.30419517479857E-01
  6.05704085109615E-01  1.23689831509962E-01  3.35390955101847E-01
  1.90417275824469E-01  1.61190056860551E-01  1.18804437605919E-01
  7.01207483137146E-01  3.32603342479363E-01  7.94245913748949E-01
  8.11323403430674E-01  6.62317794528619E-01  3.79802361845693E-01
  2.97145457972907E-01  8.29083618292717E-01  7.04239944309243E-01
  3.03025601400040E-01  3.18776953776246E-01  3.06262701069907E-01
  8.98407968899489E-01  1.82935972909019E-01  7.13552477228275E-01
  6.94572677168345E-01  8.19677587458914E-01  1.93752186903146E-01
  9.60995832485549E-02  6.84556697360237E-01  7.88590015923879E-01
  9.60945365493891E-01  1.61425299523527E-01  2.28148612083909E-01
  5.25853132842144E-01  3.08268011605681E-01  6.41775150525767E-01
  3.99068151423290E-02  6.66571894587649E-01  2.68569209256527E-01
  4.72121706997015E-01  8.14050126073068E-01  8.59098307430119E-01
  3.39873184763681E-01  9.74205721896435E-01  2.01085803408074E-01
  2.98765205201507E-01  4.17122482127073E-02  5.67933696802485E-01
  6.94646739466074E-01  5.43632622034802E-01  9.25700055351405E-01
  6.62516128320018E-01  4.73477273668970E-01  3.01919554436022E-01
  2.54064513828011E-01  3.70716671183598E-01  9.62024065047241E-01
  7.50606223721315E-01  8.65832257677027E-01  5.35338994746901E-01
  3.66441806673532E-01  6.66087412404143E-01  5.19673052871668E-01
  6.35890243064265E-01  1.66894777633466E-01 -1.44422764594999E-02
  1.46130851764290E-01  1.29291220279710E-02 -8.62389283873145E-02
  8.57636351260659E-01  5.07971716387079E-01  5.86330836532339E-01

kptopt   1
ngkpt    2 2 2
nshiftk 1
shiftk 
0.5 0.5 0.5

ecut       30
pawecutdg  30
pawxcdev   0
ixc      -116133
nband    104
diemac   4

ecutsm  0.5
nstep    100
iscf     7
tolvrs   1.0E-20
ionmov   2
optcell  2
dilatmx  1.04
tolmxf   1e-8
ntime    150
strtarget 3*0.00 1*3.39893e-05  2*0.0



# Printing flags
prtden    1
prteig    0
prtwf     1
prtposcar 0
prtcif    1
