#input for non-centrosymmetric orthorhombic HfO2

ndtset    1
autoparal 1

#Crystal Def.

nsym      1
ntypat   3
natom    26
typat    4*1 4*2 18*3
znucl    57 42 8

acell 3*1

rprim
  1.35735875436459E+01 -3.54720451337829E-02  7.04416734225219E-01
 -4.27471111583170E-02  1.33111456252420E+01  1.52573215129395E-01
  6.97577723435824E-01  1.52781181436910E-01  1.35753212393530E+01

             xred  
  8.19025901427028E-01  8.71607859221833E-01  8.72420743582084E-01
  3.95658422315720E-01  6.24293600274747E-01  1.65603864757937E-01
  1.82014205677159E-01  3.65493632905679E-01  6.30425172811140E-01
  6.05704941025448E-01  1.23689907455327E-01  3.35392324644017E-01
  1.90415985581779E-01  1.61188367155073E-01  1.18813065984601E-01
  7.01213694413204E-01  3.32604420638520E-01  7.94239770441744E-01
  8.11324235935500E-01  6.62318266982080E-01  3.79794951853275E-01
  2.97140700868129E-01  8.29082432963767E-01  7.04244839963196E-01
  3.03027336704213E-01  3.18777468364839E-01  3.06268092708345E-01
  8.98411729125341E-01  1.82934491334233E-01  7.13545588446746E-01
  6.94566088806250E-01  8.19678956876451E-01  1.93748281559515E-01
  9.60912629814268E-02  6.84559259735291E-01  7.88590131356308E-01
  9.60949329054156E-01  1.61422137328005E-01  2.28171474672337E-01
  5.25855868591109E-01  3.08265342849804E-01  6.41776559506362E-01
  3.99033527113721E-02  6.66583040256064E-01  2.68550872372426E-01
  4.72113973722153E-01  8.14045492366896E-01  8.59103188277668E-01
  3.39873485497523E-01  9.74205805296342E-01  2.01087969426022E-01
  2.98766465074374E-01  4.17111054867864E-02  5.67938550913212E-01
  6.94652835495601E-01  5.43636217277890E-01  9.25687736026363E-01
  6.62519649088408E-01  4.73478305933324E-01  3.01912069469471E-01
  2.54059320158386E-01  3.70714491852674E-01  9.62030140386759E-01
  7.50604041941311E-01  8.65828039201317E-01  5.35334497513196E-01
  3.66439428328087E-01  6.66083732045520E-01  5.19678817867896E-01
  6.35897652786797E-01  1.66899578993809E-01 -1.44431530048439E-02
  1.46124923465236E-01  1.29294651791127E-02 -8.62317340725088E-02
  8.57645169236860E-01  5.07968582051126E-01  5.86316182537436E-01



kptopt   1
ngkpt    2 2 2
nshiftk 1
shiftk 
0.5 0.5 0.5

ecut       30
pawecutdg  30
pawxcdev   0
ixc      -116133
nband    104
diemac   4

ecutsm  0.5
nstep    100
iscf     7
tolvrs   1.0E-20
ionmov   2
optcell  2
dilatmx  1.04
tolmxf   1e-8
ntime    150
strtarget 3*0.00 1*3.39893e-05  2*0.0



# Printing flags
prtden    1
prteig    0
prtwf     1
prtposcar 0
prtcif    1
