#input for KTaO3

ndtset    3

autoparal 1

#Crystal Def.
ntypat   3
natom    26
typat    4*1 4*2 18*3
znucl    57 42 8
acell 3*1


rprim
  1.33116232056843E+01  7.38981697744099E-02 -1.51927416953240E-02
  7.45794381310270E-02  1.35766070941962E+01  6.84295444055001E-01
 -1.15317145632203E-02  7.11458020679030E-01  1.35666991281845E+01

             xred      8.7078825217E-01  8.7223836967E-01  8.1907253280E-01
                       3.6839517817E-01  6.2831794085E-01  1.8110799461E-01
                       1.2422772317E-01  3.3539179863E-01  6.0513216606E-01
                       6.2416999315E-01  1.6494106862E-01  3.9535646360E-01
                       1.6083232582E-01  1.1924811943E-01  1.8959574541E-01
                       6.6199416972E-01  3.8010164161E-01  8.1083393953E-01
                       8.3027714230E-01  7.0416036423E-01  2.9784854861E-01
                       3.3208179338E-01  7.9466413517E-01  7.0172408701E-01
                       3.1896712315E-01  3.0585539535E-01  3.0372939641E-01
                       8.1963915699E-01  1.9397039735E-01  6.9572517753E-01
                       6.8412711823E-01  7.8580041126E-01  9.7525555702E-02
                       1.8324912405E-01  7.1418307289E-01  9.0015918776E-01
                       9.7391107627E-01  2.0085613909E-01  3.3975998249E-01
                       4.7390606242E-01  3.0094560163E-01  6.6140072260E-01
                       4.3145646646E-02  5.7024498394E-01  3.0027701964E-01
                       5.4351207024E-01  9.2726928611E-01  6.9747673264E-01
                       3.6867038274E-01  9.6262658177E-01  2.5080185959E-01
                       1.6737378424E-01 -1.5667995010E-02  6.3457981971E-01
                       8.6682234861E-01  5.3638573304E-01  7.5031176249E-01
                       6.6747373668E-01  5.1730693089E-01  3.6685769487E-01
                       1.6180087478E-01  2.2995100191E-01  9.6063588107E-01
                       8.1227822429E-01  8.5887045734E-01  4.7274647532E-01
                       3.1074853448E-01  6.4170626314E-01  5.2608158505E-01
                       6.6420671538E-01  2.7001993633E-01  4.0005512845E-02
                       9.5002398005E-03 -8.4999691186E-02  1.4484814082E-01
                       5.0790120318E-01  5.8561205594E-01  8.5640601585E-01
 
nshiftk 1
shiftk 
0.5 0.5 0.5
#chksymbreak 0
kptopt   1
ngkpt    2 2 2

ecut 30
ixc      -116133
nband    104
nstep    150
diemac   4


# Data set 1 - Refinement of already computed GS WFs       
irdwfk1   0
irdden1   0
iscf1     7
tolvrs1   1.0E-20
nstep1    100

# Data Set 2: Response Function calculation : d/dk 
rfelfd2    2 
rfdir2     1    1    1 

nqpt2      1 
qpt2       0.0  0.0  0.0  

getwfk2   -1 
getden2   -1 

kptopt2    2 

iscf2     -3 

tolwfr2    1.0d-22 

# Data set 3 : Response Function calculation - electric field perturbation, phonons, and strain

rfphon3   1            # Will consider phonon-type perturbation 
rfelfd3   3            # Electric Field
rfstrs3   3            # Strains

rfdir3    1   1   1    # Along all reduced coordinate axis 
rfatpol3  1   26        # All the atoms will be displaced 

nqpt3     1            # One wavevector is to be considered 
qpt3      0.0 0.0 0.0  # This wavevector is q=0 (Gamma) 

kptopt3   2            # Automatic generation of k points, taking 
                       # into account the time-reversal symmetry only 

getwfk3   1            # Read the ground-state wavefunctions 
getddk3   2
                                              
tolvrs3   1.0d-20      # SCF stopping criterion 
                       



# Printing flags
prtden    1
prteig    0
prtwf     1
prtposcar 0
prtcif    0

ecutsm  0.5
            ngfft          72      75      75
pawecutdg  30
pawxcdev   0
