#input for non-centrosymmetric orthorhombic HfO2

ndtset    2

autoparal 1

#Crystal Def.
ntypat   3
natom    26
typat    4*1 4*2 18*3
znucl    57 42 8
acell 3*1

rprim
  1.36103716590951E+01  5.54740185335578E-01  5.30748772173451E-02
  5.68388417999418E-01  1.36057908483002E+01 -3.74279592666283E-01
  7.07312558697669E-02 -3.71511881158312E-01  1.32705496438567E+01

             xred      9.1038463548E-01  8.3699931293E-01  8.8118125689E-01
                       3.4201273124E-01  6.0910378987E-01  1.2356140259E-01
                       1.7401875166E-01  3.8251209057E-01  6.3201535412E-01
                       6.4612865486E-01  1.8867331827E-01  3.4655984940E-01
                       1.1692046136E-01  1.9121905231E-01  1.6573539169E-01
                       7.0656785932E-01  3.0160202142E-01  8.2644971170E-01
                       8.0340985083E-01  7.0306028308E-01  3.3130791528E-01
                       3.8244304148E-01  8.1048111407E-01  6.5749005934E-01
                       3.1426939816E-01  2.7161059244E-01  3.1939941777E-01
                       7.9847829760E-01  9.6684032462E-02  6.8760891310E-01
                       7.3039412070E-01  8.9190979240E-01  1.8066862906E-01
                       2.0458340100E-01  6.7117987668E-01  8.2233219158E-01
                       9.6795516953E-01  2.6249082293E-01  3.8130611889E-01
                       5.2417359231E-01  3.5271195023E-01  6.5597230663E-01
                      -6.0998660196E-03  6.2096597010E-01  1.7678636475E-01
                       5.3916953235E-01  7.6445434246E-01  8.5578517310E-01
                       1.8559184581E-01  9.4939301918E-01  1.3353249046E-01
                       2.3847468681E-01  2.0004276160E-02  6.8808488092E-01
                       8.6009111485E-01  4.7881671968E-01  8.0809475872E-01
                       6.4383965784E-01  5.2984000766E-01  3.1632585139E-01
                       1.9645635090E-01  3.3069368653E-01  9.7981239037E-01
                       9.1609497031E-01  7.2525953393E-01  5.5114194386E-01
                       2.9731355842E-01  6.4507722399E-01  4.7247981512E-01
                       5.5722345303E-01  3.1996706097E-01  3.3417578897E-02
                      -1.1123696282E-01  1.6870719488E-01  3.0371801424E-02
                       5.6134169296E-01  8.7658291481E-01  4.9257843295E-01
 
kptopt   1
            ngfft          72      75      75
ngkpt    2 2 2
nshiftk 1
shiftk 
0.5 0.5 0.5
ecut       30
ecutsm  0.5
pawecutdg  30
pawxcdev   0
ixc      -116133
nband    104
diemac   4

# First SCF run       
#irdwfk1   1
nstep1    100
iscf1     7
tolvrs1   1.0E-20

#Refinement using tolwfr
nstep2    250
getwfk2   -1
iscf2     7
tolwfr2   1.0E-20

# Printing flags
prtden    1
prteig    0
prtwf     1
prtposcar 0
prtcif    1
