#input for non-centrosymmetric orthorhombic HfO2

ndtset    1
autoparal 1

#Crystal Def.

nsym      1
ntypat   3
natom    26
typat    4*1 4*2 18*3
znucl    57 42 8

acell 3*1

rprim
  1.36118216092792E+01  5.55022629076224E-01  5.25739431466675E-02
  5.68828213970179E-01  1.36037372289437E+01 -3.74130118573590E-01
  7.02391653560268E-02 -3.71318235063725E-01  1.32694204212793E+01


xred      
  9.10278146015392E-01  8.37067483079520E-01  8.81130182608646E-01
  3.42046876322070E-01  6.09061927504933E-01  1.23422648160685E-01
  1.73902050821654E-01  3.82693572317205E-01  6.31945966116199E-01
  6.46116461692405E-01  1.88629505178728E-01  3.46647327784315E-01
  1.16806507331158E-01  1.91245054744196E-01  1.65773065774675E-01
  7.06530221872614E-01  3.01674563797266E-01  8.26546573130393E-01
  8.03653395403076E-01  7.02851641923662E-01  3.31212418559611E-01
  3.82509828054301E-01  8.10505550759479E-01  6.57502882877598E-01
  3.14182126091987E-01  2.71525720839185E-01  3.19363852715587E-01
  7.98777933155350E-01  9.69545085969302E-02  6.87454081228986E-01
  7.30568470995681E-01  8.91815400665875E-01  1.80788269647463E-01
  2.04519279619983E-01  6.71252108469902E-01  8.22235063298970E-01
  9.67847283515421E-01  2.62750968244729E-01  3.81264408049785E-01
  5.24165187420091E-01  3.52725994568191E-01  6.55964337767690E-01
 -5.83974927648386E-03  6.20817022422625E-01  1.76751057540875E-01
  5.39017006390551E-01  7.64532763499158E-01  8.56080138634801E-01
  1.85301283369722E-01  9.49358055550970E-01  1.33658138435918E-01
  2.38698275050693E-01  2.01162491954479E-02  6.87963737097871E-01
  8.59741431470227E-01  4.79228465786587E-01  8.08511892650668E-01
  6.43966898784836E-01  5.29750745212524E-01  3.16015719642470E-01
  1.96338237906416E-01  3.30463713362231E-01  9.79624225103248E-01
  9.16265991764908E-01  7.25029141256030E-01  5.51104875801003E-01
  2.97454839545798E-01  6.45111161584302E-01  4.72431663807077E-01
  5.56978483107306E-01  3.19611846146049E-01  3.33608259518895E-02
 -1.11418824678582E-01  1.68693043558844E-01  3.04638819147388E-02
  5.61592358233851E-01  8.76533791751437E-01  4.92782765695564E-01



kptopt   1
ngkpt    2 2 2
nshiftk 1
shiftk 
0.5 0.5 0.5

ecut       30
pawecutdg  30
pawxcdev   0
ixc      -116133
nband    104
diemac   4

ecutsm  0.5
nstep    100
iscf     7
tolvrs   1.0E-20
ionmov   2
optcell  2
dilatmx  1.04
tolmxf   1e-8
ntime    150
strtarget 3*0.0 -3.39893e-05  2*0.0



# Printing flags
prtden    1
prteig    0
prtwf     1
prtposcar 0
prtcif    1
