#input for KTaO3

ndtset    3

autoparal 1

#Crystal Def.
ntypat   3
natom    26
typat    4*1 4*2 18*3
znucl    57 42 8

acell 3*1

rprim
  1.32822674845101E+01  0.00000000000000E+00  0.00000000000000E+00
  0.00000000000000E+00  1.35293118078959E+01  6.72706978167367E-01
  0.00000000000000E+00  7.00018939620019E-01  1.35139171385649E+01


             xred      8.6991001430E-01  8.7219753886E-01  8.1992490521E-01
                       3.6991001430E-01  6.2780246114E-01  1.8007509479E-01
                       1.2414531470E-01  3.3638194887E-01  6.0531323805E-01
                       6.2414531470E-01  1.6361805113E-01  3.9468676195E-01
                       1.6150139729E-01  1.1962713025E-01  1.8933508069E-01
                       6.6150139729E-01  3.8037286975E-01  8.1066491931E-01
                       8.3140417122E-01  7.0412742649E-01  2.9864158092E-01
                       3.3140417122E-01  7.9587257351E-01  7.0135841908E-01
                       3.1910743597E-01  3.0565725129E-01  3.0398236811E-01
                       8.1910743597E-01  1.9434274871E-01  6.9601763189E-01
                       6.8285952527E-01  7.8661519312E-01  9.9588447041E-02
                       1.8285952527E-01  7.1338480688E-01  9.0041155296E-01
                       9.7308048773E-01  2.0001109216E-01  3.3879029897E-01
                       4.7308048773E-01  2.9998890784E-01  6.6120970103E-01
                       4.3569487741E-02  5.7002156310E-01  3.0115452950E-01
                       5.4356948774E-01  9.2997843690E-01  6.9884547050E-01
                       3.6824236298E-01  9.6253382273E-01  2.5006855665E-01
                       1.6725326059E-01 -1.5567578509E-02  6.3294281442E-01
                       8.6824236298E-01  5.3746617727E-01  7.4993144335E-01
                       6.6725326059E-01  5.1556757851E-01  3.6705718558E-01
                       1.6247633161E-01  2.2969503096E-01  9.5921543344E-01
                       8.1242744169E-01  8.5852696738E-01  4.7459864416E-01
                       3.1242744169E-01  6.4147303262E-01  5.2540135584E-01
                       6.6247633161E-01  2.7030496904E-01  4.0784566562E-02
                       9.0227689276E-03 -8.6658417328E-02  1.4454077948E-01
                       5.0902276893E-01  5.8665841733E-01  8.5545922052E-01
 
#chksymbreak 0
kptopt   1
ngkpt    2 2 2
nshiftk 1
shiftk
0.5 0.5 0.5

ecut 30
ixc      -116133
nband    104
nstep    150
diemac   4


# Data set 1 - Refinement of already computed GS WFs       
irdwfk1   0
irdden1   0
iscf1     7
tolvrs1   1.0E-20
nstep1    100

# Data Set 2: Response Function calculation : d/dk 
rfelfd2    2 
rfdir2     1    1    1 

nqpt2      1 
qpt2       0.0  0.0  0.0  

getwfk2   -1 
getden2   -1 

kptopt2    2 

iscf2     -3 

tolwfr2    1.0d-22 

# Data set 3 : Response Function calculation - electric field perturbation, phonons, and strain

rfphon3   1            # Will consider phonon-type perturbation 
rfelfd3   3            # Electric Field
rfstrs3   3            # Strains

rfdir3    1   1   1    # Along all reduced coordinate axis 
rfatpol3  1   26        # All the atoms will be displaced 

nqpt3     1            # One wavevector is to be considered 
qpt3      0.0 0.0 0.0  # This wavevector is q=0 (Gamma) 

kptopt3   2            # Automatic generation of k points, taking 
                       # into account the time-reversal symmetry only 

getwfk3   1            # Read the ground-state wavefunctions 
getddk3   2
                                              
tolvrs3   1.0d-20      # SCF stopping criterion 
                       



# Printing flags
prtden    1
prteig    0
prtwf     1
prtposcar 0
prtcif    0

ecutsm   0.5
            ngfft          72      75      75
pawecutdg  30
pawxcdev   0
