#input for non-centrosymmetric orthorhombic HfO2

ndtset    1

autoparal 1

#Crystal Def.
ntypat   3
natom    26
typat    4*1 4*2 18*3
znucl    57 42 8
nsym 0

acell 3*1

rprim
  1.33307696635808E+01  0.00000000000000E+00  0.00000000000000E+00
  0.00000000000000E+00  1.35364060211342E+01  3.24394551381476E-01
  0.00000000000000E+00  3.50786949865901E-01  1.35461183261947E+01

xred      
  8.70669648990429E-01  8.80979548018835E-01  8.23348117148281E-01
  3.70669648990429E-01  6.19020451981165E-01  1.76651882851718E-01
  1.27274942558951E-01  3.38709340837282E-01  6.09478229099350E-01
  6.27274942558951E-01  1.61290659162718E-01  3.90521770900650E-01
  1.61357581075880E-01  1.17678764998481E-01  1.89569086744437E-01
  6.61357581075880E-01  3.82321235001519E-01  8.10430913255563E-01
  8.30819142294811E-01  7.00574130752802E-01  2.95873797587805E-01
  3.30819142294811E-01  7.99425869247198E-01  7.04126202412195E-01
  3.20413056312592E-01  3.03282156380553E-01  3.07270294087751E-01
  8.20413056312592E-01  1.96717843619447E-01  6.92729705912249E-01
  6.82851459775276E-01  7.80367800806907E-01  1.00844810821308E-01
  1.82851459775276E-01  7.19632199193093E-01  8.99155189178692E-01
  9.75394116097843E-01  2.03946145283874E-01  3.43761993108846E-01
  4.75394116097843E-01  2.96053854716126E-01  6.56238006891154E-01
  4.52214041836287E-02  5.72559257202772E-01  2.90938341051717E-01
  5.45221404183629E-01  9.27440742797228E-01  7.09061658948283E-01
  3.64999517305547E-01  9.58832432661422E-01  2.44834322694237E-01
  1.69545035717745E-01 -1.40737997017908E-02  6.36338135839996E-01
  8.64999517305547E-01  5.41167567338578E-01  7.55165677305763E-01
  6.69545035717745E-01  5.14073799701791E-01  3.63661864160004E-01
  1.59688536521450E-01  2.22769462785370E-01  9.62435972308278E-01
  8.13408339688113E-01  8.58877685518277E-01  4.76343178113489E-01
  3.13408339688113E-01  6.41122314481723E-01  5.23656821886511E-01
  6.59688536521450E-01  2.77230537214630E-01  3.75640276917223E-02
  3.35721949059045E-03 -8.49002476499055E-02  1.46235672468679E-01
  5.03357219490590E-01  5.84900247649905E-01  8.53764327531321E-01



kptopt   1
ngkpt    2 2 2
nshiftk 1
shiftk 
0.5 0.5 0.5

ecut       30
pawecutdg  30
pawxcdev   0
ixc      -116133
nband    104
diemac   4
ecutsm   0.5

# First SCF run       
#irdwfk1   1
nstep    100
iscf     7
tolvrs   1.0E-20
ionmov   2
optcell  2
dilatmx  1.04
tolmxf   1e-8
ntime    150
strtarget 3*0.0  -0.00005098394513175399   2*0.0

# Printing flags
prtden    1
prteig    0
prtwf     1
prtposcar 0
prtcif    0
