#input for non-centrosymmetric orthorhombic HfO2

ndtset    2

autoparal 1

#Crystal Def.
ntypat   3
natom    26
typat    4*1 4*2 18*3
znucl    57 42 8
acell 3*1

rprim
  1.33307687357875E+01  0.00000000000000E+00  0.00000000000000E+00
  0.00000000000000E+00  1.35364107134927E+01  3.24397087306954E-01
  0.00000000000000E+00  3.50789637990573E-01  1.35461171252427E+01

             xred      8.7066964449E-01  8.8097962415E-01  8.2334798687E-01
                       3.7066964449E-01  6.1902037585E-01  1.7665201313E-01
                       1.2727518892E-01  3.3870924324E-01  6.0947801599E-01
                       6.2727518892E-01  1.6129075676E-01  3.9052198401E-01
                       1.6135768264E-01  1.1767877503E-01  1.8956902235E-01
                       6.6135768264E-01  3.8232122497E-01  8.1043097765E-01
                       8.3081898782E-01  7.0057419703E-01  2.9587381960E-01
                       3.3081898782E-01  7.9942580297E-01  7.0412618040E-01
                       3.2041326230E-01  3.0328219278E-01  3.0727016961E-01
                       8.2041326230E-01  1.9671780722E-01  6.9272983039E-01
                       6.8285147880E-01  7.8036730132E-01  1.0084454813E-01
                       1.8285147880E-01  7.1963269868E-01  8.9915545187E-01
                       9.7539429869E-01  2.0394648134E-01  3.4376195673E-01
                       4.7539429869E-01  2.9605351866E-01  6.5623804327E-01
                       4.5221283610E-02  5.7255950286E-01  2.9093832360E-01
                       5.4522128361E-01  9.2744049714E-01  7.0906167640E-01
                       3.6499951324E-01  9.5883249686E-01  2.4483447365E-01
                       1.6954488227E-01 -1.4074059532E-02  6.3633766986E-01
                       8.6499951324E-01  5.4116750314E-01  7.5516552635E-01
                       6.6954488227E-01  5.1407405953E-01  3.6366233014E-01
                       1.5968874373E-01  2.2276929999E-01  9.6243577032E-01
                       8.1340812999E-01  8.5887781218E-01  4.7634304905E-01
                       3.1340812999E-01  6.4112218782E-01  5.2365695095E-01
                       6.5968874373E-01  2.7723070001E-01  3.7564229684E-02
                       3.3569035028E-03 -8.4899946590E-02  1.4623569928E-01
                       5.0335690350E-01  5.8489994659E-01  8.5376430072E-01
 
kptopt   1
            ngfft          72      75      75
ngkpt    2 2 2
nshiftk 1
shiftk 
0.5 0.5 0.5
ecut       30
ecutsm   0.5
pawecutdg  30
pawxcdev   0
ixc      -116133
nband    104
diemac   4

# First SCF run       
#irdwfk1   1
nstep1    100
iscf1     7
tolvrs1   1.0E-20

#Refinement using tolwfr
nstep2    250
getwfk2   -1
iscf2     7
tolwfr2   1.0E-20

# Printing flags
prtden    1
prteig    0
prtwf     1
prtposcar 0
prtcif    1
