#input for non-centrosymmetric orthorhombic HfO2

ndtset    2

autoparal 1

ntypat   3
natom    104
typat    16*1 16*2 72*3
znucl    57 42 8
acell 3*1

rprim
  2.69488600417856E+01 -2.97258230255293E-01 -9.45813585161534E-02
 -2.97276133324454E-01  2.68872173123620E+01  2.63281916099266E-01
 -4.70718665225013E-02  1.31591791025738E-01  1.35372084243144E+01

             xred      4.4044153785E-01  4.3427448817E-01  8.4691337746E-01
                       1.5864137130E-01  3.1753915030E-01  1.7018387526E-01
                       7.4259425544E-02  1.6961706658E-01  6.2348363841E-01
                       3.2015305321E-01  8.3725349362E-02  3.7718148768E-01
                       9.1760149082E-01  4.1581523280E-01  8.5122122037E-01
                       6.6582266649E-01  3.3945716507E-01  1.2280556868E-01
                       5.5760971917E-01  1.8893922456E-01  6.5827379928E-01
                       8.3067011558E-01  4.8566743687E-02  3.6020019687E-01
                       4.2336141604E-01  9.3491499345E-01  8.3897836285E-01
                       1.6375385481E-01  8.3541467077E-01  1.1032874562E-01
                       8.2277248567E-02  6.7539205732E-01  6.1079948767E-01
                       3.1990584422E-01  5.6130761814E-01  3.6865218388E-01
                       9.0892083982E-01  9.2827033892E-01  8.5653138930E-01
                       6.4088622234E-01  8.2260740884E-01  1.4217518536E-01
                       5.4658475328E-01  6.8147898157E-01  6.4606234817E-01
                       8.1494317268E-01  5.4295608485E-01  3.3169194968E-01
                       9.5206789453E-02  6.5402804786E-02  1.6725550771E-01
                       3.3441693688E-01  1.6567604062E-01  8.4675085575E-01
                       4.2556760333E-01  3.4907075108E-01  3.1744835027E-01
                       1.6451115941E-01  4.3869050118E-01  6.8991286076E-01
                       6.0108846385E-01  1.0350820800E-01  2.0858283028E-01
                       8.3602729737E-01  1.4530340072E-01  7.9327494731E-01
                       9.2606577746E-01  3.2687459190E-01  3.2593532368E-01
                       6.7825007957E-01  4.4067859270E-01  6.8493792468E-01
                       8.3380844832E-02  5.9167006718E-01  1.4827313286E-01
                       3.1372121844E-01  6.6801305981E-01  8.0725822165E-01
                       4.1312705127E-01  8.3308728571E-01  3.0957213647E-01
                       1.5672255768E-01  8.9701721268E-01  6.5025329446E-01
                       5.8362072635E-01  5.7054000811E-01  2.0265420125E-01
                       8.3484937878E-01  6.6174426144E-01  8.0756094756E-01
                       8.9322254606E-01  8.0719488381E-01  3.3522045308E-01
                       6.6753213055E-01  9.2919300457E-01  6.9808356523E-01
                       1.1097074300E-01  3.3224713623E-01  7.7421916776E-01
                       1.6346177833E-01  1.5753948283E-01  3.1485047299E-01
                       3.5060705539E-01  4.1245587283E-01  1.5124369277E-01
                       4.1266470399E-01  9.1858355802E-02  6.7325382639E-01
                       5.8798247552E-01  3.4928714257E-01  7.9150999074E-01
                       6.8358068397E-01  1.6389787319E-01  3.5335088234E-01
                       8.3493005550E-01  3.8973239491E-01  1.7490857240E-01
                       9.3001538207E-01  7.7026865056E-02  6.6392124404E-01
                       5.7883540405E-02  8.3990460539E-01  7.6246201251E-01
                       1.6721564119E-01  6.5415904405E-01  2.8970120573E-01
                       3.2877734790E-01  8.4987507450E-01  1.1686199205E-01
                       4.0062533637E-01  5.8641054716E-01  6.9447182946E-01
                       5.7753656435E-01  8.4186996050E-01  7.8175901602E-01
                       6.5710555246E-01  6.2421506479E-01  3.7744846228E-01
                       8.6831550492E-01  9.0687194202E-01  1.8786558426E-01
                       9.0383324130E-01  6.6331525802E-01  5.9255258466E-01
                       8.8106966298E-02  1.3945513819E-01  9.6697972479E-01
                       9.9346750525E-01  7.7965826785E-02  3.0947716156E-01
                       2.0123622720E-01  9.9158427617E-01  2.1310168078E-01
                       4.1043039556E-01  4.1758152178E-01  5.1492307241E-01
                       3.4864203335E-01  2.5101452532E-01  3.5100842527E-01
                       5.3455090088E-01  2.8419996613E-01  3.4145723668E-01
                       3.6477796883E-01  7.6470098174E-02  2.2311636289E-02
                       4.2113872115E-01  2.6105332402E-01  8.0522537979E-01
                       2.4330574802E-01  1.4697100167E-01  6.6931333095E-01
                       2.6942718921E-01  4.3703473066E-01  8.1940730646E-01
                       1.9652068070E-01  4.2591210907E-01  4.5049236791E-01
                       6.0755381964E-02  5.1276099720E-01  7.1008977031E-01
                      -2.5910901909E-03  3.4227616204E-01  1.0321133675E-01
                       9.0393826683E-01  4.1116429160E-01  5.0540519869E-01
                       8.6551704257E-01  2.1953114826E-01  3.7168358179E-01
                       4.9859638860E-01  8.5711332829E-02  3.4079517137E-01
                       5.8279155521E-01  1.7687489972E-01  1.0089389362E+00
                       6.6242098942E-01  1.0005326387E+00  1.5815984810E-01
                       7.5792472464E-01  3.7638449682E-01  8.4318001634E-01
                       6.8298864626E-01  4.0690543245E-01  4.4876725992E-01
                       5.8575102388E-01  5.2380274830E-01  7.3000680420E-01
                       8.4136492411E-01  9.0789568275E-02  1.7207805254E-02
                       9.1326751889E-01  2.4592074224E-01  7.8909319813E-01
                       7.2521657505E-01  1.9492323960E-01  7.5800243013E-01
                       3.1649335998E-01  6.2095750442E-01  3.3941525539E-02
                       4.0113871244E-01  7.6069458730E-01  7.8500827189E-01
                       2.2633237331E-01  5.9495211358E-01  6.4138883024E-01
                       1.3445446100E-01  4.8735950073E-01  7.4971286149E-02
                       5.6728709607E-02  6.6533356230E-01  9.5695502334E-01
                       9.8763746955E-01  5.6427453126E-01  2.9544479015E-01
                       3.8592804406E-01  9.2049929042E-01  4.7487438375E-01
                       3.5694942323E-01  7.2688234590E-01  3.9396976117E-01
                       4.9743248682E-01  8.9270374365E-01  1.2238202987E-01
                       1.1443049955E-01  3.4500652080E-03  5.6482189045E-01
                       2.4855176085E-01  9.3064688710E-01  8.0569756497E-01
                       1.8197297733E-01  8.2671213478E-01  4.5649609868E-01
                       6.8680169804E-01  5.0739067074E-01  1.1252292925E-01
                       4.8241014367E-01  5.7787839580E-01  3.5358429186E-01
                       5.6277402959E-01  6.6020968884E-01  1.0325758285E+00
                       8.6574058043E-01  5.7085353969E-01 -2.3941893770E-02
                       8.8489800906E-01  7.6126986637E-01  9.1628615857E-01
                       7.1622693535E-01  6.9314311821E-01  7.8672118752E-01
                       5.8502993620E-01  2.2360431891E-02  7.2319638612E-01
                       7.4294944694E-01  8.8931145374E-01  8.9081706626E-01
                       6.8952616890E-01  8.9247169657E-01  4.6723413270E-01
                       1.0039342258E-02  7.6985124849E-01  3.0497558624E-01
                       8.8364438597E-01  8.6461161244E-01  5.4999273138E-01
                       8.0400304845E-01  7.2426320755E-01  2.7830675474E-01
                       4.8007808001E-02 -4.6204731799E-02  5.5529468838E-02
                       2.6361567769E-01  2.3333103010E-01  9.9499531000E-01
                       1.0440138245E+00  2.9626655942E-01  4.2196551384E-01
                       7.7369117023E-01  5.3194058913E-01  6.6301331690E-01
                       2.1198941178E-01  7.4732824316E-01  8.1037285531E-01
                       5.3047788660E-01  7.8290432659E-01  3.8213116244E-01
                       5.2631898333E-01  4.3834104541E-01  1.4878937116E-01
                       7.6979605186E-01  1.0283836566E+00  6.6790379988E-01

kptopt   1
            ngfft         144     144      72
ngkpt    1 1 2
nshiftk 1
shiftk
0.5 0.5 0.5
ecut       30
ecutsm   0.5
pawecutdg  30
pawxcdev   0
ixc      -116133
nband    420
diemac   4



# First SCF run       
#irdwfk1   1
#nstep1    100
#iscf1     7
#tolvrs1   1.0E-20

#Refinement using tolwfr
irdwfk1   1
nstep1    50
getwfk1   -1
iscf1     7
tolwfr1   1.0E-20

# Data set 3 : Response Function calculation - electric field perturbation, phonons, and strain

rfphon2   1            # Will consider phonon-type perturbation
rfelfd2   0            # Electric Field
rfstrs2   0            # Strains

rfdir2    1   1   1    # Along all reduced coordinate axis
rfatpol2  1   3        # All the atoms will be displaced

nqpt2     1            # One wavevector is to be considered
qpt2      0.0 0.0 0.0  # This wavevector is q=0 (Gamma)

kptopt2   2            # Automatic generation of k points, taking
                       # into account the time-reversal symmetry only

getwfk2   1            # Read the ground-state wavefunctions

#getddk2   2

tolvrs2   1.0d-20      # SCF stopping criterion




# Printing flags
prtden    1
prteig    0
prtwf     1
prtposcar 0
prtcif    0
