#input for KTaO3

ndtset    3

autoparal 1

#Crystal Def.
ntypat   3
natom    26
typat    4*1 4*2 18*3
znucl    57 42 8
acell 3*1


rprim
  1.35564675004452E+01  7.05064096089630E-01 -2.64839714284121E-03
  7.14460960230786E-01  1.36323588658820E+01  1.01189161975332E-02
 -3.35512007899853E-03  9.47189918598375E-03  1.32945692857960E+01

             xred      8.6937459104E-01  8.1841208259E-01  8.6778369763E-01
                       3.3435229746E-01  6.0465951233E-01  1.2401527730E-01
                       1.6514864674E-01  3.9549689967E-01  6.2392900762E-01
                       6.2851513781E-01  1.8094673667E-01  3.6962360289E-01
                       1.2027250985E-01  1.8929616412E-01  1.6147202820E-01
                       7.0574188378E-01  2.9762778081E-01  8.3141920394E-01
                       7.9425695853E-01  7.0233780571E-01  3.3063563606E-01
                       3.7962835851E-01  8.1044124770E-01  6.6165834051E-01
                       3.0656525413E-01  3.0465070109E-01  3.1958095656E-01
                       7.8682108794E-01  9.9249754382E-02  6.8343180962E-01
                       7.1231495249E-01  9.0154705967E-01  1.8379498259E-01
                       1.9279465366E-01  6.9672770783E-01  8.1924323993E-01
                       9.6351706952E-01  2.5113089346E-01  3.6757936885E-01
                       5.1679101935E-01  3.6543748208E-01  6.6753571427E-01
                      -1.7503060725E-02  6.3542433977E-01  1.6588341211E-01
                       5.3574789992E-01  7.4853948178E-01  8.6905591121E-01
                       2.3176620082E-01  9.6170918135E-01  1.6505703826E-01
                       2.6991150280E-01  3.8842109949E-02  6.6246756353E-01
                       8.5869891035E-01  4.7274938873E-01  8.1128609987E-01
                       6.4114211460E-01  5.2732835004E-01  3.1112578546E-01
                       2.0008520502E-01  3.3907669019E-01  9.7370770500E-01
                       9.2915773623E-01  6.9714781764E-01  5.4240373146E-01
                       3.0060182976E-01  6.6126467033E-01  4.7378142176E-01
                       5.7230888188E-01  3.0164017359E-01  4.3761264127E-02
                      -8.4596069432E-02  1.4314407754E-01  8.8974513003E-03
                       5.8658442792E-01  8.5517189097E-01  5.1086974993E-01
 
nshiftk 1
shiftk 
0.5 0.5 0.5
#chksymbreak 0
kptopt   1
ngkpt    2 2 2

ecut 30
ixc      -116133
nband    104
nstep    150
diemac   4


# Data set 1 - Refinement of already computed GS WFs       
irdwfk1   0
irdden1   0
iscf1     7
tolvrs1   1.0E-20
nstep1    100

# Data Set 2: Response Function calculation : d/dk 
rfelfd2    2 
rfdir2     1    1    1 

nqpt2      1 
qpt2       0.0  0.0  0.0  

getwfk2   -1 
getden2   -1 

kptopt2    2 

iscf2     -3 

tolwfr2    1.0d-22 

# Data set 3 : Response Function calculation - electric field perturbation, phonons, and strain

rfphon3   1            # Will consider phonon-type perturbation 
rfelfd3   3            # Electric Field
rfstrs3   3            # Strains

rfdir3    1   1   1    # Along all reduced coordinate axis 
rfatpol3  1   26        # All the atoms will be displaced 

nqpt3     1            # One wavevector is to be considered 
qpt3      0.0 0.0 0.0  # This wavevector is q=0 (Gamma) 

kptopt3   2            # Automatic generation of k points, taking 
                       # into account the time-reversal symmetry only 

getwfk3   1            # Read the ground-state wavefunctions 
getddk3   2
                                              
tolvrs3   1.0d-20      # SCF stopping criterion 
                       



# Printing flags
prtden    1
prteig    0
prtwf     1
prtposcar 0
prtcif    0

ecutsm  0.5
            ngfft          72      75      75
pawecutdg  30
pawxcdev   0
