#input for non-centrosymmetric orthorhombic HfO2

ndtset    2

autoparal 1

#Crystal Def.
ntypat   3
natom    26
typat    4*1 4*2 18*3
znucl    57 42 8
acell 3*1

rprim
  1.35603135391180E+01  6.92074580368855E-01 -1.86686517621471E-03
  7.05756900636182E-01  1.35531586159740E+01  8.74383918295833E-03
 -2.51523893493475E-03  7.92844584682109E-03  1.33560080437380E+01

             xred      8.7109579927E-01  8.1845697988E-01  8.6914183735E-01
                       3.3498886236E-01  6.0495290152E-01  1.2400476597E-01
                       1.6471724012E-01  3.9505455411E-01  6.2404796649E-01
                       6.2748021889E-01  1.8107746497E-01  3.7068030727E-01
                       1.1968246927E-01  1.8924888297E-01  1.6132248155E-01
                       7.0518181182E-01  2.9782954535E-01  8.3165033645E-01
                       7.9491960806E-01  7.0217156879E-01  3.3075072243E-01
                       3.8020883900E-01  8.1050093417E-01  6.6116481014E-01
                       3.0584888196E-01  3.0476627374E-01  3.1920177392E-01
                       7.8635064393E-01  9.8846801856E-02  6.8393723438E-01
                       7.1302621314E-01  9.0179142118E-01  1.8396533317E-01
                       1.9371573023E-01  6.9617170806E-01  8.1895057739E-01
                       9.6268973371E-01  2.5025240418E-01  3.6651243546E-01
                       5.1633910552E-01  3.6617757454E-01  6.6868378416E-01
                      -1.6886637582E-02  6.3421673639E-01  1.6711931861E-01
                       5.3680063203E-01  7.4970651992E-01  8.6730193737E-01
                       2.3083483116E-01  9.6019772477E-01  1.6461258055E-01
                       2.7006874661E-01  4.0059349325E-02  6.6203121053E-01
                       8.5928931882E-01  4.7315469593E-01  8.1124925064E-01
                       6.4058343413E-01  5.2698031533E-01  3.1140342230E-01
                       2.0042416862E-01  3.3911407851E-01  9.7431807969E-01
                       9.2816773094E-01  6.9817019064E-01  5.4246036400E-01
                       3.0018608579E-01  6.6082578532E-01  4.7431266843E-01
                       5.7297202371E-01  3.0132225362E-01  4.3789692269E-02
                      -8.4267633640E-02  1.4308758351E-01  8.0917372640E-03
                       5.8558214210E-01  8.5586575142E-01  5.0929537220E-01
 
kptopt   1
            ngfft          72      75      75
ngkpt    2 2 2
nshiftk 1
shiftk 
0.5 0.5 0.5
ecut       30
ecutsm  0.5
pawecutdg  30
pawxcdev   0
ixc      -116133
nband    104
diemac   4

# First SCF run       
#irdwfk1   1
nstep1    100
iscf1     7
tolvrs1   1.0E-20

#Refinement using tolwfr
nstep2    250
getwfk2   -1
iscf2     7
tolwfr2   1.0E-20

# Printing flags
prtden    1
prteig    0
prtwf     1
prtposcar 0
prtcif    1
