#input for non-centrosymmetric orthorhombic HfO2

ndtset    1
autoparal 1

#Crystal Def.

nsym     1
ntypat   3
natom    26
typat    4*1 4*2 18*3
znucl    57 42 8

acell 3*1

rprim
  1.33127156852902E+01 -1.04032993691010E-03  6.22701536530617E-03
 -7.40165376726884E-04  1.35757777657207E+01  6.84820572840264E-01
  6.29032950156358E-03  7.11891057395841E-01  1.35668551029860E+01

             xred      8.6959784685E-01  8.7141337099E-01  8.1867071981E-01
                       3.7008130063E-01  6.2736140494E-01  1.8063785248E-01
                       1.2437140993E-01  3.3511453090E-01  6.0491892490E-01
                       6.2396347729E-01  1.6465678278E-01  3.9522940529E-01
                       1.6108932480E-01  1.1969276508E-01  1.8926568216E-01
                       6.6154149039E-01  3.8031829576E-01  8.1062262796E-01
                       8.3124753978E-01  7.0456224400E-01  2.9806307159E-01
                       3.3126890467E-01  7.9478764568E-01  7.0197124404E-01
                       3.1919470514E-01  3.0586307630E-01  3.0472125190E-01
                       8.1932565091E-01  1.9390186524E-01  6.9686337752E-01
                       6.8384692542E-01  7.8499375685E-01  9.8598559426E-02
                       1.8358134362E-01  7.1367468306E-01  9.0140120896E-01
                       9.7380416436E-01  2.0011986706E-01  3.3951950354E-01
                       4.7394253184E-01  2.9990156815E-01  6.6115162445E-01
                       4.3792688057E-02  5.7210696186E-01  3.0135917800E-01
                       5.4326076688E-01  9.2835228699E-01  6.9839916754E-01
                       3.6747806432E-01  9.6338689195E-01  2.4946297390E-01
                       1.6736487851E-01 -1.6983291743E-02  6.3404197863E-01
                       8.6767036894E-01  5.3710490748E-01  7.4929988434E-01
                       6.6785192986E-01  5.1608500300E-01  3.6657658689E-01
                       1.6313103472E-01  2.3124544503E-01  9.6067550311E-01
                       8.1136643665E-01  8.5887490476E-01  4.7293489163E-01
                       3.1174605182E-01  6.4137014729E-01  5.2636556863E-01
                       6.6263553524E-01  2.7127852749E-01  4.0254603393E-02
                       8.1817705537E-03 -8.4638035154E-02  1.4366257478E-01
                       5.0866385885E-01  5.8545439426E-01  8.5533203514E-01

kptopt   1
ngkpt    2 2 2
nshiftk 1
shiftk 
0.5 0.5 0.5

ecut       30
pawecutdg  30
pawxcdev   0
ixc      -116133
nband    104
diemac   4

ecutsm  0.5
nstep    100
iscf     7
tolvrs   1.0E-20
ionmov   2
optcell  2
dilatmx  1.04
tolmxf   1e-8
ntime    150
strtarget 3*0.0 0.0 0 0.0



# Printing flags
prtden    1
prteig    0
prtwf     1
prtposcar 0
prtcif    1
