#input for KTaO3

ndtset    3

autoparal 1

#Crystal Def.
ntypat   3
natom    26
typat    4*1 4*2 18*3
znucl    57 42 8
acell 3*1


rprim
  1.35739233443801E+01  6.97606838638923E-01 -2.11222980042783E-03
  7.11146896648947E-01  1.35697691341923E+01  1.04102387608606E-02
 -2.84906469065784E-03  9.62592093272087E-03  1.33107230591939E+01

             xred      8.7041225601E-01  8.1848730440E-01  8.6853980146E-01
                       3.3477643321E-01  6.0488340286E-01  1.2409697093E-01
                       1.6479075603E-01  3.9523701911E-01  6.2404570866E-01
                       6.2761384421E-01  1.8090046608E-01  3.7033298683E-01
                       1.1972832000E-01  1.8924962912E-01  1.6147990646E-01
                       7.0529745778E-01  2.9797591841E-01  8.3149934077E-01
                       7.9477139201E-01  7.0197757513E-01  3.3066142291E-01
                       3.8014305924E-01  8.1050226256E-01  6.6157370229E-01
                       3.0598974683E-01  3.0448776661E-01  3.1939193787E-01
                       7.8629980225E-01  9.9096034360E-02  6.8340145965E-01
                       7.1292902107E-01  9.0165707596E-01  1.8366820556E-01
                       1.9338329390E-01  6.9681318758E-01  8.1910805865E-01
                       9.6306704624E-01  2.5072442767E-01  3.6726287258E-01
                       5.1659203695E-01  3.6630567985E-01  6.6805580166E-01
                      -1.7237001902E-02  6.3432781963E-01  1.6640000090E-01
                       5.3619294922E-01  7.4907640430E-01  8.6860674753E-01
                       2.3070049244E-01  9.6045554529E-01  1.6489730200E-01
                       2.7072014572E-01  4.0033902706E-02  6.6209442494E-01
                       8.5889659257E-01  4.7327781920E-01  8.1127982746E-01
                       6.4096617392E-01  5.2680719629E-01  3.1130637336E-01
                       2.0022239856E-01  3.3907400156E-01  9.7380071086E-01
                       9.2904288638E-01  6.9795001224E-01  5.4236871032E-01
                       3.0049293588E-01  6.6111414726E-01  4.7390608729E-01
                       5.7239023020E-01  3.0113114892E-01  4.3765181682E-02
                      -8.4486996868E-02  1.4331602981E-01  8.3217489546E-03
                       5.8630472813E-01  8.5513822311E-01  5.1013470842E-01
 
nshiftk 1
shiftk 
0.5 0.5 0.5
#chksymbreak 0
kptopt   1
ngkpt    2 2 2

ecut 30
ixc      -116133
nband    104
nstep    150
diemac   4


# Data set 1 - Refinement of already computed GS WFs       
irdwfk1   0
irdden1   0
iscf1     7
tolvrs1   1.0E-20
nstep1    100

# Data Set 2: Response Function calculation : d/dk 
rfelfd2    2 
rfdir2     1    1    1 

nqpt2      1 
qpt2       0.0  0.0  0.0  

getwfk2   -1 
getden2   -1 

kptopt2    2 

iscf2     -3 

tolwfr2    1.0d-22 

# Data set 3 : Response Function calculation - electric field perturbation, phonons, and strain

rfphon3   1            # Will consider phonon-type perturbation 
rfelfd3   3            # Electric Field
rfstrs3   3            # Strains

rfdir3    1   1   1    # Along all reduced coordinate axis 
rfatpol3  1   26        # All the atoms will be displaced 

nqpt3     1            # One wavevector is to be considered 
qpt3      0.0 0.0 0.0  # This wavevector is q=0 (Gamma) 

kptopt3   2            # Automatic generation of k points, taking 
                       # into account the time-reversal symmetry only 

getwfk3   1            # Read the ground-state wavefunctions 
getddk3   2
                                              
tolvrs3   1.0d-20      # SCF stopping criterion 
                       



# Printing flags
prtden    1
prteig    0
prtwf     1
prtposcar 0
prtcif    0

ecutsm  0.5
            ngfft          72      75      75
pawecutdg  30
pawxcdev   0
