#input for non-centrosymmetric orthorhombic HfO2

ndtset    1

autoparal 1

#Crystal Def.
ntypat   3
natom    26
typat    4*1 4*2 18*3
znucl    57 42 8
acell 3*1
nsym 1

rprim
  1.35739232692323E+01  6.97604956503895E-01 -2.11104244204137E-03
  7.11145372798983E-01  1.35697622172361E+01  1.04439849592599E-02
 -2.84960395831730E-03  9.65904600925317E-03  1.33107238198003E+01

xred
  8.70406972795006E-01  8.18485302153277E-01  8.68536899119251E-01
  3.34775306253861E-01  6.04884329170240E-01  1.24097399061046E-01
  1.64789381930655E-01  3.95237842271457E-01  6.24045269371288E-01
  6.27608551417177E-01  1.80898392425911E-01  3.70335739039418E-01
  1.19727482592462E-01  1.89250008343382E-01  1.61478524558387E-01
  7.05296564653682E-01  2.97975959273908E-01  8.31499370456633E-01
  7.94770905716263E-01  7.01976749854316E-01  3.30661171702548E-01
  3.80143540502752E-01  8.10501946589923E-01  6.61575421546480E-01
  3.05987308128025E-01  3.04493152139852E-01  3.19391874764682E-01
  7.86298076442495E-01  9.90970136977390E-02  6.83400839678395E-01
  7.12925915097254E-01  9.01657334443885E-01  1.83669299889247E-01
  1.93381430529422E-01  6.96818281046103E-01  8.19107784526804E-01
  9.63065472348702E-01  2.50722215069137E-01  3.67260586458233E-01
  5.16591065154345E-01  3.66307750266537E-01  6.68056781091484E-01
 -1.72387106412301E-02  6.34329702952693E-01  1.66397276757993E-01
  5.36191690306231E-01  7.49072896763962E-01  8.68610391854124E-01
  2.30705687573850E-01  9.60458525000602E-01  1.64900274931890E-01
  2.70728027097524E-01  4.00368149217193E-02  6.62091079975291E-01
  8.58896704749600E-01  4.73277247549680E-01  8.11280168630728E-01
  6.40966036675243E-01  5.26806077944053E-01  3.11306138333922E-01
  2.00223030678009E-01  3.39075668828901E-01  9.73799521121424E-01
  9.29046597605947E-01  6.97945576778557E-01  5.42366421252413E-01
  3.00493869006483E-01  6.61116904015367E-01  4.73906833661506E-01
  5.72392012771560E-01  3.01128357294326E-01  4.37663008707159E-02
 -8.44837847481745E-02  1.43312658002199E-01  8.31859641641299E-03
  5.86310865363127E-01  8.55133293202129E-01  5.10140034929511E-01


kptopt   1
ngkpt    2 2 2
nshiftk 1
shiftk 
0.5 0.5 0.5

ecut       30
pawecutdg  30
pawxcdev   0
ixc      -116133
nband    104
diemac   4
ecutsm   0.5

# First SCF run       
#irdwfk1   1
nstep    100
iscf     7
tolvrs   1.0E-20
ionmov   2
optcell  2
dilatmx  1.04
tolmxf   1e-10
ntime    150

# Printing flags
prtden    1
prteig    0
prtwf     1
prtposcar 0
prtcif    0
