#input for non-centrosymmetric orthorhombic HfO2

ndtset    1
autoparal 1

#Crystal Def.

nsym      1
ntypat   3
natom    26
typat    4*1 4*2 18*3
znucl    57 42 8

acell 3*1

rprim
  1.35475847822875E+01  3.05004852015242E-02 -4.52634156313595E-01
  2.99478188741973E-02  1.33242595890135E+01 -4.02647071708767E-04
 -4.50037726927010E-01 -1.84492872255219E-03  1.35512016757759E+01

xred      
  8.90759936732411E-01  8.73428979176997E-01  8.36459995649250E-01
  3.23760265707389E-01  6.27422583566167E-01  1.16845435691290E-01
  1.06238300212007E-01  3.73933190098169E-01  6.60990186597806E-01
  6.79501024831218E-01  1.31960778375114E-01  3.74175883178755E-01
  2.04469158308406E-01  1.68481727055759E-01  2.01216451266560E-01
  6.89017198126452E-01  3.38241757845807E-01  8.82139992962935E-01
  7.97591704323424E-01  6.69760669529462E-01  2.97917367687973E-01
  3.10231511432655E-01  8.38980512179050E-01  6.18087597872034E-01
  3.99347159650177E-01  3.17980236980523E-01  2.80348695284075E-01
  8.01940305027026E-01  1.80479065230861E-01  6.94593548648569E-01
  5.99534658256149E-01  8.15855140514200E-01  2.16919237421670E-01
  1.89534183261956E-01  6.79521722015885E-01  8.02323057258649E-01
  1.02520821888226E+00  1.84237283801324E-01  3.57937513344159E-01
  4.58802263846966E-01  3.43433338590554E-01  7.81000124606097E-01
 -2.36396158528002E-02  6.89836407470556E-01  1.41170721591996E-01
  5.35666920781720E-01  8.34742831117735E-01  7.30232721110365E-01
  2.11342972388427E-01  9.54472238435053E-01  7.32309804388223E-02
  1.55471127540838E-01  2.52732902399848E-02  7.02425643399997E-01
  8.40244002723405E-01  5.24883454390779E-01  7.98067086267044E-01
  8.00476809828464E-01  4.56544487725864E-01  4.29495848384734E-01
  1.33223353690553E-01  3.29349723448714E-01  1.01431317235660E+00
  8.62051586738533E-01  8.33004802127583E-01  4.84943067632368E-01
  2.54587759542278E-01  6.36285663034817E-01  4.58745755267504E-01
  7.47100896981849E-01  1.31907030508824E-01  3.84005498534409E-02
  6.49410319106138E-01  4.92136545667103E-01  1.08922030967922E+00
  3.58127977946701E-01  9.97846540818466E-01  4.18799056551055E-01


kptopt   1
            ngfft          72      75      75

ngkpt    2 2 2
nshiftk 1
shiftk 
0.5 0.5 0.5

ecut       30
pawecutdg  30
pawxcdev   0
ixc      -116133
nband    104
diemac   4

ecutsm  0.5
nstep    100
iscf     7
tolvrs   1.0E-20
ionmov   2
optcell  2
dilatmx  1.04
tolmxf   1e-8
ntime    150
strtarget 4*0.0 3.39893e-05 0.0 



# Printing flags
prtden    1
prteig    0
prtwf     1
prtposcar 0
prtcif    1
