#input for non-centrosymmetric orthorhombic HfO2

ndtset    2

autoparal 1

#Crystal Def.
ntypat   3
natom    26
typat    4*1 4*2 18*3
znucl    57 42 8
acell 3*1

rprim
  1.35475848784383E+01  3.05005239163023E-02 -4.52634229398672E-01
  2.99478586214928E-02  1.33242596228179E+01 -4.02601215208835E-04
 -4.50037807380081E-01 -1.84488325502362E-03  1.35512015546527E+01

             xred      8.9075994696E-01  8.7342897081E-01  8.3645999394E-01
                       3.2376025482E-01  6.2742258129E-01  1.1684543971E-01
                       1.0623829448E-01  3.7393318809E-01  6.6099018001E-01
                       6.7950103326E-01  1.3196079502E-01  3.7417588130E-01
                       2.0446916069E-01  1.6848172055E-01  2.0121645423E-01
                       6.8901719487E-01  3.3824175494E-01  8.8213999675E-01
                       7.9759169294E-01  6.6976068327E-01  2.9791737328E-01
                       3.1023152226E-01  8.3898050850E-01  6.1808759291E-01
                       3.9934715678E-01  3.1798023069E-01  2.8034870543E-01
                       8.0194032585E-01  1.8047907470E-01  6.9459354500E-01
                       5.9953463803E-01  8.1585514145E-01  2.1691925216E-01
                       1.8953417251E-01  6.7952170651E-01  8.0232303475E-01
                       1.0252082101E+00  1.8423729400E-01  3.5793750495E-01
                       4.5880226489E-01  3.4343335702E-01  7.8100012709E-01
                      -2.3639629609E-02  6.8983642025E-01  1.4117072484E-01
                       5.3566692518E-01  8.3474282752E-01  7.3023273163E-01
                       2.1134299235E-01  9.5447224177E-01  7.3230969159E-02
                       1.5547116037E-01  2.5273289389E-02  7.0242565706E-01
                       8.4024399929E-01  5.2488344809E-01  7.9806708669E-01
                       8.0047680248E-01  4.5654450107E-01  4.2949585184E-01
                       1.3322335963E-01  3.2934971646E-01  1.0143131708E+00
                       8.6205160032E-01  8.3300481338E-01  4.8494306919E-01
                       2.5458776558E-01  6.3628565468E-01  4.5874575650E-01
                       7.4710085898E-01  1.3190701141E-01  3.8400542499E-02
                       6.4941032680E-01  4.9213653909E-01  1.0892203191E+00
                       3.5812797016E-01  9.9784653001E-01  4.1879903922E-01
 
kptopt   1
            ngfft          72      75      75
ngkpt    2 2 2
nshiftk 1
shiftk 
0.5 0.5 0.5
ecut       30
ecutsm  0.5
pawecutdg  30
pawxcdev   0
ixc      -116133
nband    104
diemac   4

# First SCF run       
#irdwfk1   1
nstep1    100
iscf1     7
tolvrs1   1.0E-20

#Refinement using tolwfr
nstep2    250
getwfk2   -1
iscf2     7
tolwfr2   1.0E-20

# Printing flags
prtden    1
prteig    0
prtwf     1
prtposcar 0
prtcif    1
