#input for non-centrosymmetric orthorhombic HfO2

ndtset    1
autoparal 1

#Crystal Def.

nsym      1
ntypat   3
natom    26
typat    4*1 4*2 18*3
znucl    57 42 8

acell 3*1

rprim
  1.35515796633718E+01  4.36185632774821E-01  3.19977271827635E-03
  4.49800127748782E-01  1.35466810471668E+01  5.66137375879049E-02
  1.94570023300959E-04  5.49036522701920E-02  1.33212316623136E+01

xred      
8.7092267314E-01  8.1963726400E-01  8.6616760010E-01
                       3.3543190163E-01  6.1039899751E-01  1.2708505013E-01
                       1.6014237746E-01  3.9418818417E-01  6.2575859351E-01
                       6.1276652720E-01  1.7435387804E-01  3.7391987967E-01
                       1.1778820623E-01  1.8970274437E-01  1.6050086210E-01
                       7.0033697914E-01  2.9587283702E-01  8.3142817733E-01
                       7.9731313444E-01  7.0172205669E-01  3.3006377232E-01
                       3.8251536499E-01  8.1084902735E-01  6.6241819566E-01
                       3.0100541390E-01  3.1322881730E-01  3.2071019180E-01
                       7.7874933392E-01  1.0171613627E-01  6.8152341678E-01
                       7.1430617898E-01  9.0023992136E-01  1.8472539309E-01
                       1.9352479505E-01  7.0144278979E-01  8.1917875047E-01
                       9.5779296038E-01  2.4417089849E-01  3.6223095988E-01
                       5.1372239373E-01  3.6916472668E-01  6.7140251567E-01
                      -1.5637393623E-02  6.4036029709E-01  1.6574646501E-01
                       5.3768587125E-01  7.5128458003E-01  8.6992545916E-01
                       2.3407339253E-01  9.6624176936E-01  1.6783375847E-01
                       2.8710804020E-01  4.3261175995E-02  6.5314217708E-01
                       8.5838677949E-01  4.7428316820E-01  8.1719504139E-01
                       6.4119649565E-01  5.2250088257E-01  3.0929190947E-01
                       2.0288444694E-01  3.4578716298E-01  9.7446779647E-01
                       9.3083608506E-01  6.9622766569E-01  5.4261860285E-01
                       2.9881335421E-01  6.6108983346E-01  4.7544084555E-01
                       5.7428268451E-01  2.8563906728E-01  4.6093912503E-02
                      -7.8816839334E-02  1.3931149285E-01  3.8018670026E-04
                       5.9286884291E-01  8.4732462546E-01  5.1075048682E-01


kptopt   1
ngkpt    2 2 2
nshiftk 1
shiftk 
0.5 0.5 0.5

ecut       30
pawecutdg  30
pawxcdev   0
ixc      -116133
nband    104
diemac   4

ecutsm  0.5
nstep    100
iscf     7
tolvrs   1.0E-20
ionmov   2
optcell  2
dilatmx  1.04
tolmxf   1e-8
ntime    150
strtarget 3*0.0 0.0  0.0 -3.39893e-05



# Printing flags
prtden    1
prteig    0
prtwf     1
prtposcar 0
prtcif    1
