#input for non-centrosymmetric orthorhombic HfO2

ndtset    1

autoparal 1

#Crystal Def.
ntypat   3
natom    26
typat    4*1 4*2 18*3
znucl    57 42 8
acell 3*1
nsym 1

rprim
  1.35740198957531E+01 -6.99258428433206E-01  3.93039728021173E-03
 -7.23452545068204E-01  1.35777983135082E+01  6.40364241063788E-03
  3.04129471394235E-03  6.65264212157774E-03  1.33108894937749E+01

xred      
8.3467168422E-01  8.9529809312E-01  8.7602212114E-01
                       3.7085192301E-01  6.8202229376E-01  1.3100756306E-01
                       1.2863177744E-01  3.1838736240E-01  6.3008791061E-01
                       6.6524208603E-01  1.0476594889E-01  3.7599604846E-01
                       2.0577277241E-01  2.0264844565E-01  1.6851914535E-01
                       6.2022527222E-01  3.1088417739E-01  8.3835266728E-01
                       8.7982158959E-01  6.8916241649E-01  3.3857967763E-01
                       2.9429556804E-01  7.9728877184E-01  6.6914829690E-01
                       2.8637964276E-01  4.0214442362E-01  3.1602273441E-01
                       8.0633411669E-01  1.9544940265E-01  6.8073035517E-01
                       6.9338996954E-01  8.0399184608E-01  1.8085642521E-01
                       2.1319097941E-01  5.9762310847E-01  8.1655906594E-01
                       1.0169830680E+00  1.3497471058E-01  3.3232371545E-01
                       4.6358092637E-01  2.4931578945E-01  6.3231256085E-01
                       3.6294177553E-02  7.5148585784E-01  1.3218559807E-01
                       4.8228205811E-01  8.6569664373E-01  8.3335034325E-01
                       3.5918009615E-01  1.0275788234E+00  1.8978394916E-01
                       1.4063897691E-01 -2.7696941546E-02  6.8827721625E-01
                       7.3114182503E-01  5.3970474137E-01  8.3572660921E-01
                       7.6947272053E-01  4.6009269697E-01  3.3655249657E-01
                       7.2634909221E-02  1.9730045572E-01  9.5619882543E-01
                       7.9987385915E-01  8.3857379365E-01  5.2612983534E-01
                       4.2833412840E-01  8.0178380707E-01  4.5738408024E-01
                       7.0026435462E-01  1.6136920291E-01  2.6101438246E-02
                       4.1543396498E-01  3.5606981656E-01  9.9112603550E-01
                       1.0850775535E+00  6.4408431193E-01  4.9066528526E-01


kptopt   1
ngkpt    2 2 2
nshiftk 1
shiftk 
0.5 0.5 0.5

ecut       30
pawecutdg  30
pawxcdev   0
ixc      -116133
nband    104
diemac   4
ecutsm   0.5

# First SCF run       
#irdwfk1   1
nstep    100
iscf     7
tolvrs   1.0E-20
ionmov   2
optcell  2
dilatmx  1.04
tolmxf   1e-10
ntime    150

# Printing flags
prtden    1
prteig    0
prtwf     1
prtposcar 0
prtcif    0
