#input for KTaO3

ndtset 2

autoparal 1

#Crystal Def.
ntypat   3
natom    104
typat    16*1 16*2 72*3
znucl    57 42 8
acell 3*1


rprim
  2.67623600591608E+01 -6.67219054478188E-01  9.22855875483294E-02
 -6.63823862994123E-01  2.72135052873140E+01 -8.63054609561987E-02
  4.00231637423838E-02 -4.23449239617593E-02  1.36599002879789E+01

             xred      4.2990923881E-01  4.3732502050E-01  8.2988788527E-01
                       1.4695285908E-01  3.0165978171E-01  1.1474042789E-01
                       1.0466152256E-01  1.6918046536E-01  5.9456139479E-01
                       3.2344118553E-01  6.0122810904E-02  3.2848618247E-01
                       9.1303723182E-01  4.3693921383E-01  8.7916489169E-01
                       6.8455336939E-01  3.3703239179E-01  1.6990260673E-01
                       5.6714993000E-01  2.0031341280E-01  7.1081791319E-01
                       8.3039786522E-01  7.4907791911E-02  3.7247970347E-01
                       4.3290094475E-01  9.3895118753E-01  8.4233572784E-01
                       1.8826826803E-01  8.2635678472E-01  1.4125408441E-01
                       9.7297105927E-02  6.7054769231E-01  6.1344096746E-01
                       3.2557336070E-01  5.6926353387E-01  3.3343311035E-01
                       9.0692278127E-01  9.3893423481E-01  8.6015594015E-01
                       6.5829637082E-01  8.1655348110E-01  2.0015902295E-01
                       5.5645540530E-01  6.8363579188E-01  6.5346990653E-01
                       8.0917286836E-01  5.7251826547E-01  3.4795767396E-01
                       9.1883645494E-02  6.3572035806E-02  1.5481736327E-01
                       3.2544113223E-01  1.7111425475E-01  7.8608892452E-01
                       4.0118522263E-01  3.2776136247E-01  3.0857437094E-01
                       1.5887190771E-01  4.0143636245E-01  6.5488615871E-01
                       5.9910802513E-01  9.6467031961E-02  1.8224282196E-01
                       8.4813684217E-01  1.6734025717E-01  8.2397607842E-01
                       9.1968981711E-01  3.3354166876E-01  3.2511431937E-01
                       6.7038219634E-01  4.2546090450E-01  7.0675544980E-01
                       8.3490301823E-02  5.4732804718E-01  1.7964796859E-01
                       3.1979122840E-01  6.6451475181E-01  8.0995403160E-01
                       4.2358603340E-01  8.4568526155E-01  2.9836583075E-01
                       1.3802993391E-01  8.9831636356E-01  6.9481051849E-01
                       5.7237488933E-01  5.8625853602E-01  1.9873036428E-01
                       8.4046806797E-01  6.7391515540E-01  8.2741359483E-01
                       9.1051065615E-01  8.2846940245E-01  3.2713044017E-01
                       6.7479609024E-01  9.3431389365E-01  7.1566883712E-01
                       7.0430508505E-02  3.4680253271E-01  8.0369753409E-01
                       1.7504409084E-01  1.5430687559E-01  2.8037086905E-01
                       3.2708153126E-01  3.5011332119E-01  1.1782908480E-01
                       4.2769115508E-01  9.5899284886E-02  7.0277302751E-01
                       5.8271258448E-01  3.5377563770E-01  8.6235882398E-01
                       6.1451368399E-01  1.5101286377E-01  3.9948598670E-01
                       8.3866914492E-01  4.1951470586E-01  2.1312693943E-01
                       9.3367152056E-01  1.4347661492E-01  6.4690293350E-01
                       5.9587908376E-02  8.1429423832E-01  7.9980114050E-01
                       1.5406250550E-01  6.4847368894E-01  2.5898179252E-01
                       3.4366012319E-01  9.1497732390E-01  1.3727010978E-01
                       4.1128099588E-01  5.8896446726E-01  6.9611531941E-01
                       5.7322168121E-01  8.5188937042E-01  7.4708863421E-01
                       6.5701737006E-01  6.5981204077E-01  3.6113638481E-01
                       8.7117135709E-01  9.2727056653E-01  2.0588055561E-01
                       9.2047120823E-01  6.4520131534E-01  6.4514443598E-01
                       8.0939090984E-02  1.4613339640E-01  9.6906356988E-01
                       9.9673310110E-01  6.8917007370E-02  3.1458247686E-01
                       1.8123676302E-01  9.8229807693E-01  2.5214240108E-01
                       3.9625233342E-01  4.2111943508E-01  4.7179685677E-01
                       3.6629521629E-01  2.2187694152E-01  4.1529366065E-01
                       5.1650419842E-01  3.1141927960E-01  2.3134026584E-01
                       3.1511884066E-01  1.2490097463E-01  8.6835861498E-03
                       4.1578746100E-01  2.6874285572E-01  7.7971031236E-01
                       2.5028007855E-01  9.6051792005E-02  6.2490955750E-01
                       2.5970958896E-01  4.4323061273E-01  7.7453810425E-01
                       1.8311136125E-01  3.2884912714E-01  4.6249795608E-01
                       1.0750523906E-01  5.0116355821E-01  5.6764804620E-01
                       1.0146996261E-02  4.0456206375E-01  1.5217068011E-01
                       9.2071626116E-01  3.7831509631E-01  5.4912808784E-01
                       8.2333892204E-01  2.4306715068E-01  3.0992822715E-01
                       4.8066839356E-01  6.0072424198E-02  1.4038303941E-01
                       6.3898765353E-01  1.8413889602E-01  1.0224080953E+00
                       6.7836139943E-01  1.0063053387E+00  1.8751785547E-01
                       7.5370589017E-01  3.8875577257E-01  8.8913017456E-01
                       6.5365002851E-01  3.4654872134E-01  5.1781646768E-01
                       5.8508308427E-01  5.1512915651E-01  7.0688609890E-01
                       8.4816280749E-01  8.6606909506E-02  1.3268783896E-02
                       8.9105565266E-01  2.7047448304E-01  9.3363292093E-01
                       7.4342539309E-01  1.9475479430E-01  7.1248452029E-01
                       3.2752613874E-01  5.9740708762E-01  1.4933348364E-02
                       3.9656330992E-01  7.6615610371E-01  8.0481659297E-01
                       2.5264349156E-01  6.3396201965E-01  5.8943620009E-01
                       1.8138518941E-01  4.7058005581E-01  1.9991401967E-01
                       5.2294616787E-02  5.6441352979E-01  9.4469428363E-01
                       9.8224088486E-01  5.6816699970E-01  3.2183400292E-01
                       4.0035381924E-01  9.2706950015E-01  4.8461558740E-01
                       3.3917025822E-01  7.4927827300E-01  2.8714613975E-01
                       5.1182330757E-01  8.7115471560E-01  1.0608127298E-01
                       7.2632719905E-02 -3.3798171564E-03  6.4119780413E-01
                       2.3987112417E-01  9.1775583102E-01  8.3407533630E-01
                       1.7139545136E-01  8.3110436477E-01  4.9832300108E-01
                       6.6451623084E-01  4.9993325434E-01  2.0976266500E-01
                       4.8458525377E-01  6.1602700958E-01  3.7311567494E-01
                       5.8378578769E-01  6.7167989430E-01  1.0199062956E+00
                       8.3621482498E-01  5.8407568333E-01 -3.3050912257E-03
                       8.8434273520E-01  7.7462971509E-01  9.4191973149E-01
                       7.2949414417E-01  6.9531009865E-01  7.3635193514E-01
                       6.0335304010E-01  3.1449388207E-02  7.7293114819E-01
                       7.3929892700E-01  8.8673386739E-01  9.0596801843E-01
                       6.9818496566E-01  8.9772214970E-01  4.8078198815E-01
                       2.2816192341E-02  7.9182418422E-01  2.6485065217E-01
                       9.1340988136E-01  8.5905078440E-01  5.6135467636E-01
                       8.2120145858E-01  7.3937137555E-01  2.9645902804E-01
                       5.8639524226E-02 -3.8802932226E-02  1.1522409512E-02
                       2.2539826972E-01  2.5120378811E-01  7.9172728725E-01
                       1.0170786736E+00  2.5649034237E-01  3.3124721175E-01
                       7.7237712104E-01  5.0245185511E-01  6.3374386072E-01
                       2.0554021872E-01  7.1529986702E-01  8.7652196424E-01
                       5.2434136732E-01  7.9429751760E-01  4.0926652285E-01
                       4.8302476414E-01  5.0037421146E-01  1.1320940047E-01
                       7.9469688620E-01  1.0182534198E+00  6.7424720276E-01
 
nshiftk 1
shiftk 
0.5 0.5 0.5
#chksymbreak 0
kptopt   1
ngkpt    1 1 1

ecut 30
ixc      -116133
nband    420
nstep    150
diemac   4


# Data set 1 - Refinement of already computed GS WFs       
irdwfk1 1
irdden1 1
iscf1     7
tolvrs1   1.0E-20
nstep1    100


rfphon2   1            # Will consider phonon-type perturbation 

rfdir2    1   1   1    # Along all reduced coordinate axis 
rfatpol2 81 88

nqpt2     1            # One wavevector is to be considered 
qpt2      0.0 0.0 0.0  # This wavevector is q=0 (Gamma) 

kptopt2   2            # Automatic generation of k points, taking 
                       # into account the time-reversal symmetry only 

getwfk2   1            # Read the ground-state wavefunctions 
getddk2   2
                                              
tolvrs2   1.0d-20      # SCF stopping criterion 
                       



# Printing flags
prtden    1
prteig    0
prtwf     1
prtposcar 0
prtcif    0

ecutsm   0.5
            ngfft         144     144      72
pawecutdg  30
pawxcdev   0
