#input for non-centrosymmetric orthorhombic HfO2

ndtset    2

autoparal 1

#Crystal Def.
ntypat   3
natom    26
typat    4*1 4*2 18*3
znucl    57 42 8
acell 3*1

rprim
  1.33046117203688E+01 -2.47915059757704E-02  1.66046811301380E-01
 -1.67303400716983E-02  1.35774467908464E+01  6.66767093926679E-01
  1.67881079400482E-01  6.93437094738932E-01  1.35767922283350E+01

             xred      8.6082648535E-01  8.6258698617E-01  8.1492748103E-01
                       3.7644596829E-01  6.1620416126E-01  1.7565288582E-01
                       1.2585460568E-01  3.3233846941E-01  6.0685497427E-01
                       6.2349214584E-01  1.6259937445E-01  3.9513340967E-01
                       1.6027271314E-01  1.1831057931E-01  1.8891767987E-01
                       6.6276397883E-01  3.8072147949E-01  8.0951628766E-01
                       8.3288987944E-01  7.0306867009E-01  2.9808069486E-01
                       3.2904873283E-01  7.9446259531E-01  7.0119618455E-01
                       3.2030216589E-01  3.0151155713E-01  3.1303217344E-01
                       8.1830692291E-01  1.9030366531E-01  7.0594993251E-01
                       6.8384672803E-01  7.8023103595E-01  1.0205655407E-01
                       1.8433071379E-01  7.0898062663E-01  9.0367321910E-01
                       9.7280674624E-01  2.0175913741E-01  3.4317410503E-01
                       4.7530970849E-01  3.0246369038E-01  6.6448745221E-01
                       4.8256760631E-02  5.7719650770E-01  2.9665148942E-01
                       5.3789208295E-01  9.3548361256E-01  6.9251044891E-01
                       3.6278476177E-01  9.6044872260E-01  2.4483260544E-01
                       1.6174581803E-01 -2.0148186166E-02  6.3782436825E-01
                       8.7333764600E-01  5.3461981561E-01  7.4328507759E-01
                       6.7175700584E-01  5.1302240887E-01  3.6991750146E-01
                       1.7287824644E-01  2.4074520579E-01  9.6572411006E-01
                       8.1094496226E-01  8.5821113152E-01  4.7255609031E-01
                       3.1207524184E-01  6.4080010524E-01  5.2558967496E-01
                       6.5212956272E-01  2.8539386831E-01  4.4319043495E-02
                       2.2600940006E-03 -7.7293718176E-02  1.3741377484E-01
                       5.1744032281E-01  5.9597849782E-01  8.4672278121E-01
 
kptopt   1
            ngfft          72      75      75
ngkpt    2 2 2
nshiftk 1
shiftk 
0.5 0.5 0.5
ecut       30
ecutsm  0.5
pawecutdg  30
pawxcdev   0
ixc      -116133
nband    104
diemac   4

# First SCF run       
#irdwfk1   1
nstep1    100
iscf1     7
tolvrs1   1.0E-20

#Refinement using tolwfr
nstep2    250
getwfk2   -1
iscf2     7
tolwfr2   1.0E-20

# Printing flags
prtden    1
prteig    0
prtwf     1
prtposcar 0
prtcif    1
