#input for KTaO3

ndtset    2

autoparal 1

#Crystal Def.
#Crystal Def.
ntypat   3
natom    104
typat    16*1 16*2 72*3
znucl    57 42 8
acell 3*1

rprim
  2.67879251824871E+01 -4.65681543810283E-01  7.81469616767040E-01
 -4.55477817046360E-01  2.73902071021682E+01 -1.13005836128955E-01
  3.89242800859549E-01 -4.59794320907658E-02  1.36112782797111E+01

             xred      4.2725122411E-01  4.3512557967E-01  8.3834918372E-01
                       1.5005888270E-01  2.9714717466E-01  1.1992840625E-01
                       1.0483928090E-01  1.7318402915E-01  6.1578937213E-01
                       3.1780701720E-01  6.1298032540E-02  3.2090345025E-01
                       9.1324598549E-01  4.2639081848E-01  8.8127510915E-01
                       6.8766583696E-01  3.3291949617E-01  1.6572485276E-01
                       5.7043915344E-01  2.0120129876E-01  7.0496610226E-01
                       8.1861326523E-01  7.0725963476E-02  3.7856582425E-01
                       4.3485896018E-01  9.4013213990E-01  8.4403392420E-01
                       1.9777611949E-01  8.2731053463E-01  1.5541064973E-01
                       1.0196757444E-01  6.7417498850E-01  6.4408961674E-01
                       3.3454527236E-01  5.7223111976E-01  3.4155490457E-01
                       9.0602721580E-01  9.3360406350E-01  8.6675637633E-01
                       6.6405636843E-01  8.1543365737E-01  2.0539917413E-01
                       5.5916423819E-01  6.8186100191E-01  6.5976093224E-01
                       8.0803238180E-01  5.6698711476E-01  3.3204648912E-01
                       8.7708950554E-02  6.5557920455E-02  1.5945306574E-01
                       3.2802319243E-01  1.7359547771E-01  7.8123219980E-01
                       3.9753894783E-01  3.2885824094E-01  3.1762027583E-01
                       1.6492954314E-01  4.0305246002E-01  6.4907919244E-01
                       5.9829684585E-01  9.6911372565E-02  1.6668149572E-01
                       8.3439401601E-01  1.5530838312E-01  8.1938867635E-01
                       9.2042647048E-01  3.2786027742E-01  3.3133080772E-01
                       6.6814176422E-01  4.2599439773E-01  7.0334781795E-01
                       9.2537344561E-02  5.6449995089E-01  1.6683872480E-01
                       3.2089506572E-01  6.6648679816E-01  8.2072750927E-01
                       4.2880573947E-01  8.4800425756E-01  3.0355551068E-01
                       1.4009459596E-01  9.0260560968E-01  7.0771138060E-01
                       5.7385795542E-01  5.8782645109E-01  1.9594273483E-01
                       8.4019135827E-01  6.6807250829E-01  8.1017658909E-01
                       9.1169498828E-01  8.2643915917E-01  3.3063491026E-01
                       6.7583481596E-01  9.3039697784E-01  7.2168123121E-01
                       6.8982934312E-02  3.4299550851E-01  7.7823522556E-01
                       1.6958618330E-01  1.5295865701E-01  2.9179034354E-01
                       3.3097658557E-01  3.5492339922E-01  1.2268584290E-01
                       4.3236198397E-01  9.7317944393E-02  7.0837089725E-01
                       5.8113100947E-01  3.5118075149E-01  8.6219968171E-01
                       6.0806655125E-01  1.5546271720E-01  3.8053607650E-01
                       8.3485727437E-01  4.1329251230E-01  2.1164153413E-01
                       9.3435102293E-01  1.3277081930E-01  6.6870174689E-01
                       5.5905651742E-02  8.2103228088E-01  8.0961768706E-01
                       1.5534717247E-01  6.5869481112E-01  2.7596491462E-01
                       3.4728354859E-01  9.1724163880E-01  1.4295923455E-01
                       4.1267022033E-01  5.8890338908E-01  7.1260000788E-01
                       5.7426992260E-01  8.4948347182E-01  7.4498268688E-01
                       6.5893870371E-01  6.5948723634E-01  3.5214033823E-01
                       8.6656390386E-01  9.2187073683E-01  2.0987949976E-01
                       9.2582413670E-01  6.4373565349E-01  6.2554044160E-01
                       8.3496702791E-02  1.5463679387E-01  9.8202855090E-01
                       9.8684225250E-01  6.9216439319E-02  3.1393485722E-01
                       1.7630596781E-01  9.8329179195E-01  2.4440093291E-01
                       3.9307078662E-01  4.2280279653E-01  4.8032860778E-01
                       3.6581505710E-01  2.1976577782E-01  4.1410445966E-01
                       5.1509223445E-01  3.1849001289E-01  2.3617881975E-01
                       3.1160987573E-01  1.3368331984E-01  1.0133183972E-02
                       4.1769954056E-01  2.7066831143E-01  7.6780037902E-01
                       2.5415351805E-01  9.8355712657E-02  6.3008515707E-01
                       2.5672139045E-01  4.4317509684E-01  7.8605554433E-01
                       2.0237854102E-01  3.3745225068E-01  4.4986561794E-01
                       1.1657459203E-01  5.0442794062E-01  5.6646024894E-01
                       3.9736820902E-04  3.7050382880E-01  1.2603587171E-01
                       9.0997427384E-01  3.8689260595E-01  5.4557539631E-01
                       8.2993316774E-01  2.3650626958E-01  3.1284525896E-01
                       4.7971640772E-01  6.6409130455E-02  1.2673050292E-01
                       6.4975340167E-01  1.8165164903E-01  1.0059100808E+00
                       6.7229582246E-01  1.0037176811E+00  1.8789881406E-01
                       7.5013840186E-01  3.9623557501E-01  8.8325506129E-01
                       6.5723463513E-01  3.4612271418E-01  5.1425686388E-01
                       5.7858173067E-01  5.1262850983E-01  7.1152705820E-01
                       8.3614002877E-01  8.0315436593E-02  1.8704523344E-02
                       8.6124733711E-01  2.6334605237E-01  9.1780182108E-01
                       7.4136638668E-01  1.7471245926E-01  6.6550221074E-01
                       3.1399542234E-01  5.9925053208E-01  2.8015310705E-02
                       3.9885611666E-01  7.6563285307E-01  8.1949797308E-01
                       2.5863464359E-01  6.3884758488E-01  6.0050832327E-01
                       1.6708369553E-01  4.7054068257E-01  1.8390558400E-01
                       6.2499689897E-02  5.7722189663E-01  9.3050228958E-01
                       9.8280784235E-01  5.5363308311E-01  2.9083132066E-01
                       4.0081097291E-01  9.3110452053E-01  4.8675234493E-01
                       3.4610601172E-01  7.5188609963E-01  2.9015933312E-01
                       5.1773667340E-01  8.7363525399E-01  1.0904066938E-01
                       8.0636227309E-02  2.3951336482E-04  6.3569817595E-01
                       2.4067358281E-01  9.2040521762E-01  8.4232866927E-01
                       1.7640675519E-01  8.3419206672E-01  5.1008854759E-01
                       6.6039594351E-01  4.9777171308E-01  2.0027741842E-01
                       4.8760411744E-01  6.1814359700E-01  3.8603342536E-01
                       5.8898119338E-01  6.7387363145E-01  1.0186653441E+00
                       8.3686084119E-01  5.7752304826E-01 -2.0751709036E-02
                       8.7935837456E-01  7.6623505007E-01  9.3027720038E-01
                       7.3129482141E-01  6.9328559018E-01  7.2195035289E-01
                       6.0391956962E-01  2.7554004735E-02  7.8592031772E-01
                       7.3637103437E-01  8.7952487613E-01  9.0912293599E-01
                       7.0254199463E-01  9.0249706178E-01  4.7864864948E-01
                       2.5585813611E-02  7.9797874674E-01  2.4779128808E-01
                       9.1548572420E-01  8.5664592969E-01  5.6504960108E-01
                       8.2797617430E-01  7.3476779221E-01  3.0345163471E-01
                       5.6373363977E-02 -2.7086952554E-02 -1.1947026559E-03
                       2.2817580089E-01  2.5628310208E-01  7.8841668400E-01
                       1.0220223862E+00  2.6094019094E-01  3.8159102615E-01
                       7.6260669127E-01  5.0828670838E-01  6.2089615396E-01
                       2.0602376344E-01  7.2348923216E-01  8.8680945532E-01
                       5.2552480724E-01  7.9510178442E-01  4.1605966591E-01
                       4.7716183286E-01  5.1344629124E-01  1.1342537136E-01
                       7.9611152126E-01  1.0095923575E+00  6.8500887332E-01

kptopt   1
ngfft         144     144      72
ngkpt    1 1 2
nshiftk 1
shiftk
0.5 0.5 0.5
ecut       30
ecutsm   0.5
pawecutdg  30
pawxcdev   0
ixc      -116133
nband    420
diemac   4


#Refinement using tolwfr
irdwfk1   1
nstep1    50
getwfk1   -1
iscf1     7
tolwfr1   1.0E-20

# Data set 3 : Response Function calculation - electric field perturbation, phonons, and strain

rfphon2   1            # Will consider phonon-type perturbation
rfelfd2   0            # Electric Field
rfstrs2   0            # Strains

rfdir2    1   1   1    # Along all reduced coordinate axis
rfatpol2 36 40

nqpt2     1            # One wavevector is to be considered
qpt2      0.0 0.0 0.0  # This wavevector is q=0 (Gamma)

kptopt2   2            # Automatic generation of k points, taking
                       # into account the time-reversal symmetry only

getwfk2   1            # Read the ground-state wavefunctions

#getddk2   2

tolvrs2   1.0d-20      # SCF stopping criterion




# Printing flags
prtden    1
prteig    0
prtwf     1
prtposcar 0
prtcif    0
