#input for KTaO3

ndtset    3

autoparal 1

#Crystal Def.
ntypat   3
natom    26
typat    4*1 4*2 18*3
znucl    57 42 8
acell 3*1


rprim
  1.33047314920539E+01  2.75925249563769E-02 -1.57854743773747E-01
  1.99874122348529E-02  1.35701367275855E+01  6.75677286895260E-01
 -1.59412427009204E-01  7.01720528275833E-01  1.35812577978783E+01

             xred      8.7568158449E-01  8.8079238401E-01  8.2305323716E-01
                       3.6057619826E-01  6.3715597875E-01  1.8484234630E-01
                       1.2324092775E-01  3.3690191012E-01  6.0494251642E-01
                       6.2506496399E-01  1.6748192110E-01  3.9380135513E-01
                       1.6244220707E-01  1.1917747663E-01  1.9062488614E-01
                       6.6106855722E-01  3.8146713560E-01  8.1113741642E-01
                       8.2877135824E-01  7.0545832213E-01  2.9839753959E-01
                       3.3326272777E-01  7.9618581877E-01  7.0189816479E-01
                       3.1779252665E-01  3.0958235772E-01  2.9583299539E-01
                       8.2004504678E-01  1.9756431684E-01  6.8840478211E-01
                       6.8419593052E-01  7.9212009101E-01  9.6475416246E-02
                       1.8405497308E-01  7.1705843964E-01  8.9759171095E-01
                       9.7481456421E-01  1.9645988746E-01  3.3617879982E-01
                       4.7275488884E-01  2.9931193640E-01  6.5802216504E-01
                       3.7579253761E-02  5.6443339259E-01  3.0660240169E-01
                       5.4764464121E-01  9.2426510476E-01  7.0142866055E-01
                       3.7326367801E-01  9.6553968366E-01  2.5686391056E-01
                       1.7105482980E-01 -1.3699112795E-02  6.3180114690E-01
                       8.6409130554E-01  5.3902981177E-01  7.5371348169E-01
                       6.6147517722E-01  5.2019337901E-01  3.6220341969E-01
                       1.5323334844E-01  2.1743178924E-01  9.5686075672E-01
                       8.1228802777E-01  8.5927066649E-01  4.7378117751E-01
                       3.1055410952E-01  6.4207737940E-01  5.2688808517E-01
                       6.7225677208E-01  2.6105372100E-01  3.5285968567E-02
                       1.8034879823E-02 -9.5997541229E-02  1.5192890948E-01
                       5.0475752198E-01  5.7968374991E-01  8.6143874998E-01
 
nshiftk 1
shiftk 
0.5 0.5 0.5
#chksymbreak 0
kptopt   1
ngkpt    2 2 2

ecut 30
ixc      -116133
nband    104
nstep    150
diemac   4


# Data set 1 - Refinement of already computed GS WFs       
irdwfk1   0
irdden1   0
iscf1     7
tolvrs1   1.0E-20
nstep1    100

# Data Set 2: Response Function calculation : d/dk 
rfelfd2    2 
rfdir2     1    1    1 

nqpt2      1 
qpt2       0.0  0.0  0.0  

getwfk2   -1 
getden2   -1 

kptopt2    2 

iscf2     -3 

tolwfr2    1.0d-22 

# Data set 3 : Response Function calculation - electric field perturbation, phonons, and strain

rfphon3   1            # Will consider phonon-type perturbation 
rfelfd3   3            # Electric Field
rfstrs3   3            # Strains

rfdir3    1   1   1    # Along all reduced coordinate axis 
rfatpol3  1   26        # All the atoms will be displaced 

nqpt3     1            # One wavevector is to be considered 
qpt3      0.0 0.0 0.0  # This wavevector is q=0 (Gamma) 

kptopt3   2            # Automatic generation of k points, taking 
                       # into account the time-reversal symmetry only 

getwfk3   1            # Read the ground-state wavefunctions 
getddk3   2
                                              
tolvrs3   1.0d-20      # SCF stopping criterion 
                       



# Printing flags
prtden    1
prteig    0
prtwf     1
prtposcar 0
prtcif    0

ecutsm  0.5
            ngfft          72      75      75
pawecutdg  30
pawxcdev   0
