#input for non-centrosymmetric orthorhombic HfO2

ndtset    2

autoparal 1

#Crystal Def.
ntypat   3
natom    26
typat    4*1 4*2 18*3
znucl    57 42 8
acell 3*1

rprim
  1.33275264637178E+01  0.00000000000000E+00  0.00000000000000E+00
  0.00000000000000E+00  1.35993675102456E+01  6.91631703570910E-01
  0.00000000000000E+00  7.18448995733993E-01  1.35963089213502E+01


xred
  8.69701056183476E-01  8.71881114740116E-01  8.18519526117829E-01
  3.69701056183475E-01  6.28118885259884E-01  1.81480473882170E-01
  1.24175809321082E-01  3.34598690812847E-01  6.04574514625965E-01
  6.24175809321083E-01  1.65401309187153E-01  3.95425485374035E-01
  1.61248660201911E-01  1.19709952126780E-01  1.89322224067525E-01
  6.61248660201911E-01  3.80290047873219E-01  8.10677775932475E-01
  8.31144056019293E-01  7.05332571378307E-01  2.97707105232222E-01
  3.31144056019293E-01  7.94667428621693E-01  7.02292894767778E-01
  3.19359502560978E-01  3.06200854616386E-01  3.03934838032114E-01
  8.19359502560978E-01  1.93799145383614E-01  6.96065161967886E-01
  6.84120914995780E-01  7.85447459576171E-01  9.81495769515608E-02
  1.84120914995780E-01  7.14552540423829E-01  9.01850423048439E-01
  9.74292216924648E-01  2.00106982901246E-01  3.39366546879432E-01
  4.74292216924648E-01  2.99893017098754E-01  6.60633453120567E-01
  4.34247740396195E-02  5.72770350502299E-01  3.01606470450445E-01
  5.43424774039619E-01  9.27229649497701E-01  6.98393529549555E-01
  3.67238841466778E-01  9.63471056700314E-01  2.50241646501584E-01
  1.67707094046112E-01 -1.70851862590089E-02  6.34265636507410E-01
  8.67238841466779E-01  5.36528943299686E-01  7.49758353498415E-01
  6.67707094046112E-01  5.17085186259009E-01  3.65734363492590E-01
  1.63298134929320E-01  2.30114426190726E-01  9.60757645755403E-01
  8.11062935429859E-01  8.58865296337283E-01  4.72596947006322E-01
  3.11062935429858E-01  6.41134703662717E-01  5.27403052993678E-01
  6.63298134929320E-01  2.69885573809275E-01  3.92423542445974E-02
  8.22600389829742E-03 -8.42670543675006E-02  1.43945715470931E-01
  5.08226003898297E-01  5.84267054367501E-01  8.56054284529068E-01

kptopt   1
ngkpt    2 2 2
nshiftk 1
shiftk 
0.5 0.5 0.5

ecutsm     0.5
ecut       30
pawecutdg  30
pawxcdev   0
ixc      -116133
nband    104
diemac   4

# First SCF run       
#irdwfk1   1
nstep1    100
iscf1     7
tolvrs1   1.0E-20

#Refinement using tolwfr
nstep2    250
getwfk2   -1
iscf2     7
tolwfr2   1.0E-20

# Printing flags
prtden    1
prteig    0
prtwf     1
prtposcar 0
prtcif    1
