#input for non-centrosymmetric orthorhombic HfO2

ndtset    1

autoparal 1

#Crystal Def.
ntypat   3
natom    26
typat    4*1 4*2 18*3
znucl    57 42 8
acell 3*7.1547 Angstrom


nsym 1



xred      
8.5075676680E-01  9.1851815346E-01  8.3802065529E-01
3.2960500557E-01  6.6545594384E-01  1.6370197749E-01
1.3018677534E-01  3.4244026317E-01  6.0598049410E-01
6.4511619188E-01  1.6449939577E-01  3.4839725046E-01
1.8814098799E-01  1.3997853000E-01  1.5991057762E-01
6.6604975498E-01  3.6466327623E-01  8.0648527756E-01
8.0646850198E-01  6.9168138715E-01  3.5760590789E-01
3.1401350817E-01  8.0710476724E-01  7.0227712843E-01
3.2201417820E-01  3.2980970251E-01  2.9116584093E-01
8.3500330685E-01  1.9613403503E-01  6.5372448344E-01
7.5356022002E-01  8.1658934390E-01  1.5307941048E-01
1.8294791494E-01  6.3162556664E-01  8.1992482370E-01
9.9093683892E-01  1.7448569633E-01  3.1105400752E-01
4.8223501822E-01  2.9178822745E-01  6.4781953874E-01
4.3076266226E-02  6.1432123734E-01  3.6784572690E-01
4.9797239894E-01  8.8294342311E-01  8.4675192740E-01
3.9250631547E-01  9.8758091030E-01  2.4072149908E-01
1.5754845775E-01 -7.2050940245E-03  6.4631227317E-01
8.2676926580E-01  5.4679607300E-01  7.2312511463E-01
6.6058231821E-01  4.9665634849E-01  3.3804380923E-01
1.6364553626E-01  2.6224822979E-01  9.4651902862E-01
7.4075756276E-01  8.6546805857E-01  5.2259713383E-01
3.9246632763E-01  6.9647228433E-01  4.9905870752E-01
7.2206914786E-01  1.9861316151E-01 -3.8579627242E-03
1.0933605449E-01 -9.2106546647E-02  5.9172198999E-02
5.3223537873E-01  5.1343762551E-01  9.5456316968E-01








kptopt   1
ngkpt    2 2 2
nshiftk 1
shiftk 
0.5 0.5 0.5

ecut       30
pawecutdg  30
pawxcdev   0
ixc      -116133
nband    104
diemac   4
ecutsm   0.5

# First SCF run       
#irdwfk1   1
nstep    100
iscf     7
tolvrs   1.0E-20
ionmov   2
optcell  2
dilatmx  1.04
tolmxf   1e-8
ntime    250

# Printing flags
prtden    1
prteig    0
prtwf     1
prtposcar 0
prtcif    0
