#input for KTaO3

ndtset 2

autoparal 1

#Crystal Def.
ntypat   3
natom    104
typat    16*1 16*2 72*3
znucl    57 42 8
acell 3*1


rprim
  2.69245107456190E+01 -6.69948459661424E-01  6.93384878005318E-02
 -6.69907045333004E-01  2.72382488017419E+01 -7.12203184319256E-02
  2.89834730650363E-02 -3.54297672627304E-02  1.35544686168339E+01

             xred      4.2920324568E-01  4.3712274623E-01  8.2969254597E-01
                       1.4691851185E-01  3.0214669015E-01  1.1442289868E-01
                       1.0461112555E-01  1.6922402619E-01  5.9651125981E-01
                       3.2370115397E-01  6.0012355264E-02  3.2986464934E-01
                       9.1208978192E-01  4.3744285750E-01  8.7889503112E-01
                       6.8420682920E-01  3.3722946521E-01  1.7016085462E-01
                       5.6675172482E-01  2.0026177635E-01  7.1202584127E-01
                       8.3190253946E-01  7.6348399951E-02  3.7057140231E-01
                       4.3352042496E-01  9.3933758232E-01  8.4305759031E-01
                       1.8769460172E-01  8.2645835383E-01  1.4373895326E-01
                       9.7472102451E-02  6.6977904992E-01  6.2172489383E-01
                       3.2630386750E-01  5.6918870525E-01  3.3963987680E-01
                       9.0641742516E-01  9.3971103630E-01  8.5981152768E-01
                       6.5673464457E-01  8.1569799524E-01  1.9940508007E-01
                       5.5674859433E-01  6.8311908082E-01  6.5434458609E-01
                       8.0962558354E-01  5.7287239453E-01  3.4617866604E-01
                       9.2595627661E-02  6.4141329964E-02  1.5412950923E-01
                       3.2582895577E-01  1.7181753927E-01  7.8524495353E-01
                       4.0152082673E-01  3.2758450376E-01  3.0739267815E-01
                       1.5909464801E-01  4.0190068378E-01  6.5275795600E-01
                       5.9918747421E-01  9.6162500362E-02  1.8244767008E-01
                       8.4765678544E-01  1.6766674863E-01  8.2291319890E-01
                       9.2010819864E-01  3.3402487115E-01  3.2368008473E-01
                       6.6925901092E-01  4.2548855752E-01  7.0644466008E-01
                       8.3750833341E-02  5.4836469935E-01  1.7874471701E-01
                       3.2057792606E-01  6.6445537081E-01  8.1319690424E-01
                       4.2296576912E-01  8.4531745820E-01  3.0072649912E-01
                       1.3717779769E-01  8.9841314246E-01  6.9690122459E-01
                       5.7291275578E-01  5.8553226253E-01  1.9775977316E-01
                       8.4065235040E-01  6.7485127995E-01  8.2499621695E-01
                       9.1027925197E-01  8.2785053968E-01  3.2656818424E-01
                       6.7466038532E-01  9.3336484283E-01  7.1718058399E-01
                       7.1166306677E-02  3.4659257732E-01  8.0126741002E-01
                       1.7507828300E-01  1.5480315895E-01  2.8008931178E-01
                       3.2786441694E-01  3.5137122067E-01  1.1574055196E-01
                       4.2716562527E-01  9.6412668010E-02  6.9997783318E-01
                       5.8294723278E-01  3.5367222465E-01  8.6442163585E-01
                       6.1292486015E-01  1.5142784721E-01  4.0048625187E-01
                       8.3884453126E-01  4.1964418417E-01  2.1076305040E-01
                       9.3329990831E-01  1.4239853876E-01  6.4694691986E-01
                       6.1472196596E-02  8.1338380708E-01  8.0621260885E-01
                       1.5295227345E-01  6.4916584988E-01  2.5978804763E-01
                       3.4367555275E-01  9.1501009378E-01  1.3875308519E-01
                       4.0979355773E-01  5.8907269898E-01  6.9261986718E-01
                       5.7386253783E-01  8.5115586799E-01  7.5305060903E-01
                       6.5661369122E-01  6.5975455083E-01  3.6100851938E-01
                       8.7258018486E-01  9.2811288906E-01  2.0735530863E-01
                       9.1961601894E-01  6.4538720238E-01  6.4101536071E-01
                       8.1416512594E-02  1.4698088929E-01  9.6661177861E-01
                       9.9775321929E-01  6.9801717353E-02  3.1369999087E-01
                       1.8154326304E-01  9.8297657042E-01  2.5244412911E-01
                       3.9724316649E-01  4.2089767673E-01  4.7203416836E-01
                       3.6478019426E-01  2.2223359641E-01  4.1444166180E-01
                       5.1591142376E-01  3.0968711689E-01  2.3054857520E-01
                       3.1625340393E-01  1.2556219721E-01  9.5357090758E-03
                       4.1634446365E-01  2.6899606922E-01  7.7920153093E-01
                       2.4990824141E-01  9.6414357713E-02  6.2562741194E-01
                       2.5950141875E-01  4.4411784297E-01  7.7254800767E-01
                       1.8379001819E-01  3.2905594255E-01  4.6028791409E-01
                       1.0814075310E-01  5.0145123239E-01  5.6340484557E-01
                       9.7219458103E-03  4.0387815094E-01  1.4955819108E-01
                       9.2056024418E-01  3.7983867121E-01  5.4864930410E-01
                       8.2408277861E-01  2.4371953051E-01  3.0921396613E-01
                       4.8140726332E-01  6.0193854794E-02  1.3796865539E-01
                       6.4053866542E-01  1.8369857954E-01  1.0222980533E+00
                       6.7796545260E-01  1.0061714501E+00  1.9137495674E-01
                       7.5334588909E-01  3.8845393340E-01  8.8758974372E-01
                       6.5196828817E-01  3.4604937189E-01  5.1725218330E-01
                       5.8396442269E-01  5.1478681911E-01  7.0735637667E-01
                       8.4717962851E-01  8.6900768019E-02  1.3813171238E-02
                       8.9072355239E-01  2.7078675568E-01  9.3199323755E-01
                       7.4379371969E-01  1.9427641500E-01  7.0896179927E-01
                       3.3043713656E-01  5.9591319129E-01  1.7669039445E-02
                       3.9685447364E-01  7.6584704597E-01  8.0817197898E-01
                       2.5192745336E-01  6.3526945189E-01  5.9189169093E-01
                       1.8041645919E-01  4.7101019001E-01  1.9775475374E-01
                       5.2956429466E-02  5.6555226636E-01  9.4082661231E-01
                       9.8165308835E-01  5.6716203189E-01  3.1802506715E-01
                       4.0004854712E-01  9.2665724081E-01  4.8840002345E-01
                       3.3912980644E-01  7.4897016105E-01  2.8918542280E-01
                       5.1090284683E-01  8.7133875862E-01  1.0816787878E-01
                       7.2084753504E-02 -3.7523506163E-03  6.3975870759E-01
                       2.3923504501E-01  9.1839062167E-01  8.3427526985E-01
                       1.6975587548E-01  8.3026435316E-01  4.9989939371E-01
                       6.6554515460E-01  5.0016977457E-01  2.0911699494E-01
                       4.8517828820E-01  6.1530229494E-01  3.7181655288E-01
                       5.8326424924E-01  6.7121962615E-01  1.0176378014E+00
                       8.3677043645E-01  5.8455875829E-01 -5.3766305775E-03
                       8.8497198853E-01  7.7523556406E-01  9.4009970510E-01
                       7.2978834328E-01  6.9604349627E-01  7.3570585058E-01
                       6.0327252421E-01  3.0816772963E-02  7.7169019535E-01
                       7.3984789098E-01  8.8712675544E-01  9.0928075576E-01
                       6.9709441478E-01  8.9386955714E-01  4.8290261537E-01
                       2.1726258286E-02  7.9185850359E-01  2.6224420814E-01
                       9.1419880634E-01  8.5692264108E-01  5.6341664883E-01
                       8.2052800580E-01  7.3970860700E-01  2.9414739006E-01
                       5.9123046729E-02 -3.7711979598E-02  9.0976972709E-03
                       2.2657398073E-01  2.5192794488E-01  7.9218379984E-01
                       1.0169196446E+00  2.5695383213E-01  3.3338200772E-01
                       7.6995083954E-01  5.0274062729E-01  6.3148880408E-01
                       2.0728289143E-01  7.1431445010E-01  8.8346484429E-01
                       5.2320947000E-01  7.9380701551E-01  4.1211156370E-01
                       4.8561686103E-01  4.9834393790E-01  1.1278143430E-01
                       7.9390912991E-01  1.0169851238E+00  6.7173971788E-01
 
nshiftk 1
shiftk 
0.5 0.5 0.5
#chksymbreak 0
kptopt   1
ngkpt    1 1 1

ecut 30
ixc      -116133
nband    420
nstep    150
diemac   4


# Data set 1 - Refinement of already computed GS WFs       
irdwfk1 1
irdden1 1
iscf1     7
tolvrs1   1.0E-20
nstep1    100


rfphon2   1            # Will consider phonon-type perturbation 

rfdir2    1   1   1    # Along all reduced coordinate axis 
rfatpol2 25 32

nqpt2     1            # One wavevector is to be considered 
qpt2      0.0 0.0 0.0  # This wavevector is q=0 (Gamma) 

kptopt2   2            # Automatic generation of k points, taking 
                       # into account the time-reversal symmetry only 

getwfk2   1            # Read the ground-state wavefunctions 
getddk2   2
                                              
tolvrs2   1.0d-20      # SCF stopping criterion 
                       



# Printing flags
prtden    1
prteig    0
prtwf     1
prtposcar 0
prtcif    0

ecutsm   0.5
            ngfft         144     144      72
pawecutdg  30
pawxcdev   0
