#input for KTaO3

ndtset    3

autoparal 1

#Crystal Def.
ntypat   3
natom    26
typat    4*1 4*2 18*3
znucl    57 42 8
acell 3*1


rprim
  1.35903312886426E+01  6.88983549168037E-01 -1.61634586348275E-03
  7.06366464051809E-01  1.35117751788503E+01  8.62109234960984E-03
 -2.27564076663348E-03  7.78928597010005E-03  1.33256570032272E+01

             xred      8.7152588595E-01  8.1860804530E-01  8.6935085708E-01
                       3.3522759805E-01  6.0507441230E-01  1.2416459382E-01
                       1.6441407869E-01  3.9504458099E-01  6.2414753445E-01
                       6.2680462534E-01  1.8088345432E-01  3.7088977020E-01
                       1.1921835729E-01  1.8925515028E-01  1.6150290286E-01
                       7.0482100203E-01  2.9825203908E-01  8.3153451334E-01
                       7.9526427728E-01  7.0168487786E-01  3.3072380037E-01
                       3.8067853448E-01  8.1053070365E-01  6.6150781349E-01
                       3.0547292789E-01  3.0433883022E-01  3.1920719733E-01
                       7.8576459727E-01  9.8866640673E-02  6.8339332675E-01
                       7.1358375598E-01  9.0176748224E-01  1.8357557767E-01
                       1.9400696438E-01  6.9678826302E-01  8.1898474754E-01
                       9.6266301924E-01  2.5035773018E-01  3.6705053093E-01
                       5.1643780977E-01  3.6710430150E-01  6.6843318152E-01
                      -1.6940672246E-02  6.3340446096E-01  1.6695222460E-01
                       5.3672118237E-01  7.4962664097E-01  8.6812014678E-01
                       2.2968099378E-01  9.5933889992E-01  1.6457098643E-01
                       2.7149283044E-01  4.1058755916E-02  6.6194953322E-01
                       8.5906702016E-01  4.7371301995E-01  8.1135833362E-01
                       6.4083923297E-01  5.2633732660E-01  3.1132909531E-01
                       2.0028085106E-01  3.3911199843E-01  9.7390527825E-01
                       9.2882851281E-01  6.9865209497E-01  5.4245189962E-01
                       3.0031348001E-01  6.6098082439E-01  4.7397863345E-01
                       5.7232924861E-01  3.0055613680E-01  4.3682152961E-02
                      -8.4481804559E-02  1.4357747941E-01  7.8940117133E-03
                       5.8598569095E-01  8.5508585008E-01  5.0934135668E-01
 
nshiftk 1
shiftk 
0.5 0.5 0.5
#chksymbreak 0
kptopt   1
ngkpt    2 2 2

ecut 30
ixc      -116133
nband    104
nstep    150
diemac   4


# Data set 1 - Refinement of already computed GS WFs       
irdwfk1   0
irdden1   0
iscf1     7
tolvrs1   1.0E-20
nstep1    100

# Data Set 2: Response Function calculation : d/dk 
rfelfd2    2 
rfdir2     1    1    1 

nqpt2      1 
qpt2       0.0  0.0  0.0  

getwfk2   -1 
getden2   -1 

kptopt2    2 

iscf2     -3 

tolwfr2    1.0d-22 

# Data set 3 : Response Function calculation - electric field perturbation, phonons, and strain

rfphon3   1            # Will consider phonon-type perturbation 
rfelfd3   3            # Electric Field
rfstrs3   3            # Strains

rfdir3    1   1   1    # Along all reduced coordinate axis 
rfatpol3  1   26        # All the atoms will be displaced 

nqpt3     1            # One wavevector is to be considered 
qpt3      0.0 0.0 0.0  # This wavevector is q=0 (Gamma) 

kptopt3   2            # Automatic generation of k points, taking 
                       # into account the time-reversal symmetry only 

getwfk3   1            # Read the ground-state wavefunctions 
getddk3   2
                                              
tolvrs3   1.0d-20      # SCF stopping criterion 
                       



# Printing flags
prtden    1
prteig    0
prtwf     1
prtposcar 0
prtcif    0

ecutsm  0.5
            ngfft          72      75      75
pawecutdg  30
pawxcdev   0
