#input for KTaO3

ndtset    3

autoparal 1

#Crystal Def.
ntypat   3
natom    26
typat    4*1 4*2 18*3
znucl    57 42 8
acell 3*1


rprim
  1.34023301762143E+01 -1.07179165903434E-03  4.14740821026568E-03
 -8.82407070598917E-04  1.35474805054274E+01  6.76241838231861E-01
  4.22597044547863E-03  7.03445852444651E-01  1.35349004364214E+01

             xred      8.7037185181E-01  8.7207618202E-01  8.1844439205E-01
                       3.7065743718E-01  6.2711383793E-01  1.8110218265E-01
                       1.2412558339E-01  3.3534998319E-01  6.0510081456E-01
                       6.2371872376E-01  1.6445837439E-01  3.9494113329E-01
                       1.6059571946E-01  1.1952461664E-01  1.8930401561E-01
                       6.6110850713E-01  3.8049378768E-01  8.1050300318E-01
                       8.3144245123E-01  7.0428510395E-01  2.9779688956E-01
                       3.3155540028E-01  7.9516617684E-01  7.0232515547E-01
                       3.1866600664E-01  3.0556791931E-01  3.0533973440E-01
                       8.1885080932E-01  1.9430318641E-01  6.9565188584E-01
                       6.8468274033E-01  7.8546372180E-01  9.8346509200E-02
                       1.8458889294E-01  7.1354698328E-01  9.0173444033E-01
                       9.7461858458E-01  2.0032279058E-01  3.3961613046E-01
                       4.7480604876E-01  2.9974341187E-01  6.6076084339E-01
                       4.3620179255E-02  5.7308957054E-01  3.0160789839E-01
                       5.4320071779E-01  9.2740572136E-01  6.9846143377E-01
                       3.6577329923E-01  9.6258274920E-01  2.4892469906E-01
                       1.6854016065E-01 -1.6378330128E-02  6.3413491634E-01
                       8.6609894047E-01  5.3783632968E-01  7.5020799470E-01
                       6.6887804989E-01  5.1557020776E-01  3.6635315967E-01
                       1.6262071218E-01  2.3162226011E-01  9.6028079710E-01
                       8.1129702083E-01  8.5948716888E-01  4.7276690632E-01
                       3.1174334115E-01  6.4066087680E-01  5.2675871652E-01
                       6.6252259242E-01  2.7022096732E-01  4.0275659428E-02
                       7.7446964830E-03 -8.4356821277E-02  1.4300227993E-01
                       5.0817153286E-01  5.8484322388E-01  8.5625840880E-01
 
nshiftk 1
shiftk 
0.5 0.5 0.5
#chksymbreak 0
kptopt   1
ngkpt    2 2 2

ecut 30
ixc      -116133
nband    104
nstep    150
diemac   4


# Data set 1 - Refinement of already computed GS WFs       
irdwfk1   0
irdden1   0
iscf1     7
tolvrs1   1.0E-20
nstep1    100

# Data Set 2: Response Function calculation : d/dk 
rfelfd2    2 
rfdir2     1    1    1 

nqpt2      1 
qpt2       0.0  0.0  0.0  

getwfk2   -1 
getden2   -1 

kptopt2    2 

iscf2     -3 

tolwfr2    1.0d-22 

# Data set 3 : Response Function calculation - electric field perturbation, phonons, and strain

rfphon3   1            # Will consider phonon-type perturbation 
rfelfd3   3            # Electric Field
rfstrs3   3            # Strains

rfdir3    1   1   1    # Along all reduced coordinate axis 
rfatpol3  1   26        # All the atoms will be displaced 

nqpt3     1            # One wavevector is to be considered 
qpt3      0.0 0.0 0.0  # This wavevector is q=0 (Gamma) 

kptopt3   2            # Automatic generation of k points, taking 
                       # into account the time-reversal symmetry only 

getwfk3   1            # Read the ground-state wavefunctions 
getddk3   2
                                              
tolvrs3   1.0d-20      # SCF stopping criterion 
                       



# Printing flags
prtden    1
prteig    0
prtwf     1
prtposcar 0
prtcif    0

ecutsm  0.5
            ngfft          72      75      75
pawecutdg  30
pawxcdev   0
