#input for KTaO3

ndtset    3

autoparal 1

#Crystal Def.
ntypat   3
natom    26
typat    4*1 4*2 18*3
znucl    57 42 8
acell 3*1


rprim
  1.33570175805098E+01 -8.21489515096353E-04  5.11585478508548E-03
 -5.75910970548918E-04  1.35618551792181E+01  6.80972226085901E-01
  5.19774015269258E-03  7.08117851293883E-01  1.35509430582261E+01

             xred      8.6998949447E-01  8.7170432010E-01  8.1853832323E-01
                       3.7037623263E-01  6.2724170532E-01  1.8087900883E-01
                       1.2425005496E-01  3.3521858436E-01  6.0502419266E-01
                       6.2384067493E-01  1.6456209437E-01  3.9507890685E-01
                       1.6083256914E-01  1.1961609891E-01  1.8929057564E-01
                       6.6132786925E-01  3.8039029910E-01  8.1055928349E-01
                       8.3134811263E-01  7.0442109662E-01  2.9792075894E-01
                       3.3142266746E-01  7.9497009864E-01  7.0215714723E-01
                       3.1892984464E-01  3.0571725031E-01  3.0504713022E-01
                       8.1908336614E-01  1.9407968615E-01  6.9629079840E-01
                       6.8426866631E-01  7.8522290942E-01  9.8457430184E-02
                       1.8409006559E-01  7.1360160878E-01  9.0157973885E-01
                       9.7420071145E-01  2.0022367083E-01  3.3958308533E-01
                       4.7435994644E-01  2.9983130846E-01  6.6096474904E-01
                       4.3717330975E-02  5.7259740230E-01  3.0143724215E-01
                       5.4323504977E-01  9.2789440657E-01  6.9841283628E-01
                       3.6664106270E-01  9.6300234532E-01  2.4918734731E-01
                       1.6793906782E-01 -1.6685520899E-02  6.3411725353E-01
                       8.6690016618E-01  5.3744272343E-01  7.4972677454E-01
                       6.6836469583E-01  5.1583065970E-01  3.6647250648E-01
                       1.6286879190E-01  2.3146330807E-01  9.6049092817E-01
                       8.1134603787E-01  8.5917314954E-01  4.7283657877E-01
                       3.1172596582E-01  6.4104163410E-01  5.2655846174E-01
                       6.6256020402E-01  2.7075838967E-01  4.0276713305E-02
                       7.9574914000E-03 -8.4473555858E-02  1.4332273751E-01
                       5.0842385968E-01  5.8515432669E-01  8.5578949133E-01
 
nshiftk 1
shiftk 
0.5 0.5 0.5
#chksymbreak 0
kptopt   1
ngkpt    2 2 2

ecut 30
ixc      -116133
nband    104
nstep    150
diemac   4


# Data set 1 - Refinement of already computed GS WFs       
irdwfk1   0
irdden1   0
iscf1     7
tolvrs1   1.0E-20
nstep1    100

# Data Set 2: Response Function calculation : d/dk 
rfelfd2    2 
rfdir2     1    1    1 

nqpt2      1 
qpt2       0.0  0.0  0.0  

getwfk2   -1 
getden2   -1 

kptopt2    2 

iscf2     -3 

tolwfr2    1.0d-22 

# Data set 3 : Response Function calculation - electric field perturbation, phonons, and strain

rfphon3   1            # Will consider phonon-type perturbation 
rfelfd3   3            # Electric Field
rfstrs3   3            # Strains

rfdir3    1   1   1    # Along all reduced coordinate axis 
rfatpol3  1   26        # All the atoms will be displaced 

nqpt3     1            # One wavevector is to be considered 
qpt3      0.0 0.0 0.0  # This wavevector is q=0 (Gamma) 

kptopt3   2            # Automatic generation of k points, taking 
                       # into account the time-reversal symmetry only 

getwfk3   1            # Read the ground-state wavefunctions 
getddk3   2
                                              
tolvrs3   1.0d-20      # SCF stopping criterion 
                       



# Printing flags
prtden    1
prteig    0
prtwf     1
prtposcar 0
prtcif    0

ecutsm  0.5
            ngfft          72      75      75
pawecutdg  30
pawxcdev   0
