#input for non-centrosymmetric orthorhombic HfO2

ndtset    1
autoparal 1

#Crystal Def.

nsym      1
ntypat   3
natom    26
typat    4*1 4*2 18*3
znucl    57 42 8

acell 3*1

rprim
  1.32543066482008E+01  7.79973448203098E-02  3.76350603604212E-01
  5.79511385132652E-02  1.36367337431444E+01 -5.29881957991207E-01
  3.78332379610921E-01 -5.55376201563999E-01  1.36102900131928E+01

xred      
  8.66162551390721E-01  8.24626402690636E-01  8.78831116413455E-01
  3.77100855167246E-01  6.56907261663364E-01  1.10018625630495E-01
  1.53246935664269E-01  3.52803244082069E-01  6.89576201136710E-01
  6.20399441504876E-01  8.47002357923374E-02  3.39340834560591E-01
  1.71181131730929E-01  1.94822919182177E-01  2.04085711837832E-01
  6.72917985228867E-01  2.92728250487276E-01  8.03027233315173E-01
  8.43522640830914E-01  6.18845057446255E-01  3.09489600083398E-01
  3.33228636976332E-01  8.82586304065502E-01  6.90362225996534E-01
  3.20896015969131E-01  2.68564894606282E-01  3.92510426238304E-01
  8.11865511177271E-01  2.01440587604724E-01  5.98105568937718E-01
  6.77462347882045E-01  7.95709128443042E-01  1.67457370576270E-01
  1.78859752783209E-01  6.84734933716063E-01  7.65779188522425E-01
  9.50929349607149E-01  8.48090397244832E-02  2.32353496989563E-01
  4.65194005969686E-01  4.41743214654620E-01  8.22068383676776E-01
  2.76647076524511E-02  7.02523931797083E-01  1.41873940845657E-01
  5.18577365268152E-01  8.01240477495545E-01  8.29561648872289E-01
  3.24657136001470E-01  1.00558461863860E+00  1.19341423752770E-01
  1.18071442686938E-01  3.12617390573322E-02  7.63688038891178E-01
  8.42979056447908E-01  4.75599346286624E-01  8.51599222871407E-01
  6.45564376600035E-01  4.62752848090707E-01  2.63352494199483E-01
  1.81665170728031E-01  3.55618275182722E-01  1.03182175648471E+00
  8.08857127826754E-01  7.67864681955572E-01  5.15434165353827E-01
  3.67660348024813E-01  8.18096430009398E-01  4.47646248246666E-01
  6.93934226851501E-01  1.39711768497936E-01 -1.95280290596438E-02
  1.00829063842014E+00  4.43877054727692E-01  3.81060113683327E-01
  4.69111241564695E-01  1.11084735405465E+00  6.71142992011467E-01

kptopt 1
            ngfft          72      75      75

ngkpt    2 2 2
nshiftk 1
shiftk 
0.5 0.5 0.5

ecut       30
pawecutdg  30
pawxcdev   0
ixc      -116133
nband    104
diemac   4

ecutsm  0.5
nstep    100
iscf     7
tolvrs   1.0E-20
ionmov   2
optcell  2
dilatmx  1.04
tolmxf   1e-8
ntime    250
strtarget 4*0.0 3.39893e-05 0.0 



# Printing flags
prtden    1
prteig    0
prtwf     1
prtposcar 0
prtcif    1
