#input for KTaO3

ndtset    3

autoparal 1

#Crystal Def.
ntypat   3
natom    26
typat    4*1 4*2 18*3
znucl    57 42 8
acell 3*1


rprim
  1.32261424269306E+01  0.00000000000000E+00 -1.48594116985913E-01
  0.00000000000000E+00  1.37817813515895E+01  0.00000000000000E+00
 -1.33016541580767E-01  0.00000000000000E+00  1.36810662507760E+01

xred     
8.8637469471E-01  8.6009766287E-01  8.5685487586E-01
3.2843813605E-01  6.1515899384E-01  1.9369225985E-01
1.1362530529E-01  3.6009766287E-01  6.4314512414E-01
6.7156186395E-01  1.1515899384E-01  3.0630774015E-01
1.5056346014E-01  1.7259414421E-01  1.7921488458E-01
6.5864463573E-01  3.5503580756E-01  8.0622014037E-01
8.4943653986E-01  6.7259414421E-01  3.2078511542E-01
3.4135536427E-01  8.5503580756E-01  6.9377985963E-01
2.1774923158E-01  6.7169129672E-01  8.0133991210E-01
3.3663898014E-01  2.8698972819E-01  3.3281556211E-01
6.6336101986E-01  7.8698972819E-01  1.6718443789E-01
7.8225076842E-01  1.7169129672E-01  6.9866008790E-01
7.0981464793E-03  6.9158739789E-01  1.1418193170E-01
2.7975030764E-01  9.7040455225E-01  1.2952290999E-01
8.2589929626E-01  8.4756744614E-01  4.9460563994E-01
8.2667092892E-01  5.3606376905E-01  7.8396992699E-01
5.4695631144E-01  9.0522437995E-01  8.2419370048E-01
9.9290185352E-01  1.9158739789E-01  3.8581806830E-01
7.2024969236E-01  4.7040455225E-01  3.7047709001E-01
1.7410070374E-01  3.4756744614E-01  1.0053943601E+00
4.5304368856E-01  4.0522437995E-01  6.7580629952E-01
1.7332907108E-01  3.6063769052E-02  7.1603007301E-01
1.0934373065E+00  5.9377857077E-01  4.2777698960E-01
5.8830796703E-01  3.2980625056E-01  3.6998890078E-02
4.1169203297E-01  8.2980625056E-01  4.6300110992E-01
-9.3437306482E-02  9.3778570766E-02  1.0722230104E+00
 
nshiftk 1
shiftk 
0.5 0.5 0.5
#chksymbreak 0
kptopt   1
ngkpt    2 2 2

ecut 30
ixc      -116133
nband    104
nstep    150
diemac   4


# Data set 1 - Refinement of already computed GS WFs       
irdwfk1   0
irdden1   0
iscf1     7
tolvrs1   1.0E-20
nstep1    100

# Data Set 2: Response Function calculation : d/dk 
rfelfd2    2 
rfdir2     1    1    1 

nqpt2      1 
qpt2       0.0  0.0  0.0  

getwfk2   -1 
getden2   -1 

kptopt2    2 

iscf2     -3 

tolwfr2    1.0d-22 

# Data set 3 : Response Function calculation - electric field perturbation, phonons, and strain

rfphon3   1            # Will consider phonon-type perturbation 
rfelfd3   3            # Electric Field
rfstrs3   0            # Strains

rfdir3    1   1   1    # Along all reduced coordinate axis 
rfatpol3  1   26        # All the atoms will be displaced 

nqpt3     1            # One wavevector is to be considered 
qpt3      0.0 0.0 0.0  # This wavevector is q=0 (Gamma) 

kptopt3   2            # Automatic generation of k points, taking 
                       # into account the time-reversal symmetry only 

getwfk3   1            # Read the ground-state wavefunctions 
getddk3   2
                                              
tolvrs3   1.0d-20      # SCF stopping criterion 
                       



# Printing flags
prtden    1
prteig    0
prtwf     1
prtposcar 0
prtcif    0

ecutsm   0.5
            ngfft          72      75      75
pawecutdg  30
pawxcdev   0
