#input for non-centrosymmetric orthorhombic HfO2

ndtset    1
autoparal 1

#Crystal Def.

nsym     1
ntypat   3
natom    26
typat    4*1 4*2 18*3
znucl    57 42 8

acell 3*1

rprim
  1.33005526840119E+01 -1.22614374363581E-03 -1.81319484738525E-03
 -1.42225463542415E-03  1.35885820012980E+01  8.09634247886300E-01
 -1.91846926341542E-03  8.36256175054310E-01  1.35873667733296E+01

             xred    
  8.69177809556884E-01  8.68452496991864E-01  8.17219991048743E-01
  3.68609617858994E-01  6.32240703425859E-01  1.82967979634525E-01
  1.23476347545833E-01  3.33590666190055E-01  6.03967876708733E-01
  6.23362002216569E-01  1.66546436460827E-01  3.95877733866777E-01
  1.61584985867489E-01  1.20778568180577E-01  1.89582023795372E-01
  6.61569707534102E-01  3.79255034700617E-01  8.10341801104105E-01
  8.31039528908259E-01  7.06812712402151E-01  2.98490616916934E-01
  3.31252524750376E-01  7.93118785208209E-01  7.01592308632691E-01
  3.18966840282385E-01  3.07875170190118E-01  3.02565433966363E-01
  8.19226196592770E-01  1.92486360840045E-01  6.97045529129302E-01
  6.83893605643935E-01  7.88997641382260E-01  9.78363139978435E-02
  1.83686365444140E-01  7.11558693099996E-01  9.02079472850781E-01
  9.73560976205979E-01  1.98999218445359E-01  3.37737263098205E-01
  4.73588917986415E-01  3.00538179044304E-01  6.62066566235803E-01
  4.22795643355316E-02  5.71448081809519E-01  3.04620037628840E-01
  5.42626265979174E-01  9.28072472990683E-01  6.96446860570851E-01
  3.68838533062649E-01  9.65235847390370E-01  2.53351253495363E-01
  1.66665623766928E-01 -1.80384589949620E-02  6.33170388531106E-01
  8.68321455075208E-01  5.35417652044460E-01  7.46540844766147E-01
  6.66244663613232E-01  5.17858468723733E-01  3.66301031979848E-01
  1.64283280469580E-01  2.32604025365402E-01  9.59806311118505E-01
  8.10278714348034E-01  8.59084614473282E-01  4.71938908247263E-01
  3.10790782243422E-01  6.40987577546536E-01  5.27964029838605E-01
  6.65113749409916E-01  2.67019837033990E-01  3.99152615673281E-02
  1.11782287755379E-02 -8.52492075015660E-02  1.43953777698995E-01
  5.10383712557732E-01  5.84308422559407E-01  8.56620383579542E-01

kptopt   1
ngkpt    2 2 2
nshiftk 1
shiftk 
0.5 0.5 0.5

ecut       30
pawecutdg  30
pawxcdev   0
ixc      -116133
nband    104
diemac   4

ecutsm  0.5
nstep    100
iscf     7
tolvrs   1.0E-20
ionmov   2
optcell  2
dilatmx  1.04
tolmxf   1e-8
ntime    150
strtarget 3*0.0 1.69946e-05 2*0.0 



# Printing flags
prtden    1
prteig    0
prtwf     1
prtposcar 0
prtcif    1
