#input for non-centrosymmetric orthorhombic HfO2

ndtset    2

autoparal 1

#Crystal Def.
ntypat   3
natom    26
typat    4*1 4*2 18*3
znucl    57 42 8
acell 3*1

rprim
  1.33005527923989E+01 -1.22616563964526E-03 -1.81301574108155E-03
 -1.42226624418408E-03  1.35885812649220E+01  8.09633795235573E-01
 -1.91828772120742E-03  8.36255671745044E-01  1.35873668639993E+01

             xred      8.6917782451E-01  8.6845252588E-01  8.1722003473E-01
                       3.6860960959E-01  6.3224070862E-01  1.8296798395E-01
                       1.2347630886E-01  3.3359069409E-01  6.0396788666E-01
                       6.2336196312E-01  1.6654642042E-01  3.9587765596E-01
                       1.6158498136E-01  1.2077859954E-01  1.8958200287E-01
                       6.6156969293E-01  3.7925502700E-01  8.1034175731E-01
                       8.3103957107E-01  7.0681271944E-01  2.9849065014E-01
                       3.3125254679E-01  7.9311875465E-01  7.0159237398E-01
                       3.1896687267E-01  3.0787514990E-01  3.0256544365E-01
                       8.1922620347E-01  1.9248637879E-01  6.9704546608E-01
                       6.8389360846E-01  7.8899764072E-01  9.7836379816E-02
                       1.8368638150E-01  7.1155862570E-01  9.0207952889E-01
                       9.7356098534E-01  1.9899922440E-01  3.3773723128E-01
                       4.7358891293E-01  3.0053816866E-01  6.6206655475E-01
                       4.2279600590E-02  5.7144805089E-01  3.0462002179E-01
                       5.4262629250E-01  9.2807244474E-01  6.9644687242E-01
                       3.6883852656E-01  9.6523583856E-01  2.5335121826E-01
                       1.6666565953E-01 -1.8038458882E-02  6.3317049614E-01
                       8.6832138305E-01  5.3541772804E-01  7.4654070519E-01
                       6.6624468338E-01  5.1785847252E-01  3.6630102656E-01
                       1.6428314308E-01  2.3260409563E-01  9.5980630709E-01
                       8.1027877109E-01  8.5908466014E-01  4.7193893490E-01
                       3.1079075652E-01  6.4098758305E-01  5.2796405444E-01
                       6.6511376926E-01  2.6701977076E-01  3.9915195072E-02
                       1.1178260446E-02 -8.5249215801E-02  1.4395378503E-01
                       5.1038369144E-01  5.8430839254E-01  8.5662043307E-01
 
kptopt   1
            ngfft          72      75      75
ngkpt    2 2 2
nshiftk 1
shiftk 
0.5 0.5 0.5
ecut       30
ecutsm  0.5
pawecutdg  30
pawxcdev   0
ixc      -116133
nband    104
diemac   4

# First SCF run       
#irdwfk1   1
nstep1    100
iscf1     7
tolvrs1   1.0E-20

#Refinement using tolwfr
nstep2    250
getwfk2   -1
iscf2     7
tolwfr2   1.0E-20

# Printing flags
prtden    1
prteig    0
prtwf     1
prtposcar 0
prtcif    1
