#input for KTaO3

ndtset    3

autoparal 1

#Crystal Def.
ntypat   3
natom    26
typat    4*1 4*2 18*3
znucl    57 42 8
acell 3*1


rprim
  1.35864487252600E+01  1.16836125423671E-02  7.10363126491154E-01
  1.16291256255809E-02  1.32676190220030E+01 -2.84087275437704E-03
  7.03706525666182E-01 -2.84756234831718E-03  1.35871868382412E+01

             xred      8.1834147289E-01  8.6828330414E-01  8.7021587409E-01
                       3.9541407868E-01  6.2393776740E-01  1.6471678471E-01
                       1.8076139823E-01  3.6974830571E-01  6.2756486154E-01
                       6.0475904803E-01  1.2424236848E-01  3.3470665935E-01
                       1.8923658692E-01  1.6153188722E-01  1.1967200396E-01
                       7.0211561025E-01  3.3071106439E-01  7.9464741997E-01
                       8.1039568058E-01  6.6194648306E-01  3.8045318559E-01
                       2.9811361893E-01  8.3121051350E-01  7.0468387920E-01
                       3.0474268389E-01  3.1948396109E-01  3.0593196366E-01
                       9.0169961124E-01  1.8318091563E-01  7.1291010060E-01
                       6.9717456232E-01  8.1926635545E-01  1.9340197712E-01
                       9.8973792514E-02  6.8341068981E-01  7.8529203614E-01
                       9.6096581071E-01  1.6458640907E-01  2.3120477396E-01
                       5.2661201649E-01  3.1130112919E-01  6.4177969688E-01
                       4.0056593910E-02  6.6302144698E-01  2.7225120436E-01
                       4.7288201537E-01  8.1108404311E-01  8.5846381543E-01
                       3.3904708386E-01  9.7328699136E-01  1.9977762453E-01
                       3.0127302005E-01  4.3750067664E-02  5.7128624843E-01
                       6.9771941662E-01  5.4259266939E-01  9.2960275849E-01
                       6.6183807215E-01  4.7336218547E-01  3.0050152548E-01
                       2.5063371166E-01  3.6837565740E-01  9.6365526623E-01
                       7.4756526205E-01  8.6919420037E-01  5.3647840799E-01
                       3.6645198816E-01  6.6715716939E-01  5.1633664434E-01
                       6.3488853572E-01  1.6590861137E-01 -1.7428251568E-02
                       1.4386498948E-01  8.9877184838E-03 -8.5059674288E-02
                       8.5447333932E-01  5.1043808492E-01  5.8695321382E-01
 
nshiftk 1
shiftk 
0.5 0.5 0.5
#chksymbreak 0
kptopt   1
ngkpt    2 2 2

ecut 30
ixc      -116133
nband    104
nstep    150
diemac   4


# Data set 1 - Refinement of already computed GS WFs       
irdwfk1   0
irdden1   0
iscf1     7
tolvrs1   1.0E-20
nstep1    100

# Data Set 2: Response Function calculation : d/dk 
rfelfd2    2 
rfdir2     1    1    1 

nqpt2      1 
qpt2       0.0  0.0  0.0  

getwfk2   -1 
getden2   -1 

kptopt2    2 

iscf2     -3 

tolwfr2    1.0d-22 

# Data set 3 : Response Function calculation - electric field perturbation, phonons, and strain

rfphon3   1            # Will consider phonon-type perturbation 
rfelfd3   3            # Electric Field
rfstrs3   3            # Strains

rfdir3    1   1   1    # Along all reduced coordinate axis 
rfatpol3  1   26        # All the atoms will be displaced 

nqpt3     1            # One wavevector is to be considered 
qpt3      0.0 0.0 0.0  # This wavevector is q=0 (Gamma) 

kptopt3   2            # Automatic generation of k points, taking 
                       # into account the time-reversal symmetry only 

getwfk3   1            # Read the ground-state wavefunctions 
getddk3   2
                                              
tolvrs3   1.0d-20      # SCF stopping criterion 
                       



# Printing flags
prtden    1
prteig    0
prtwf     1
prtposcar 0
prtcif    0

ecutsm  0.5
            ngfft          72      75      75
pawecutdg  30
pawxcdev   0
