#input for KTaO3

ndtset    3

autoparal 1

#Crystal Def.
ntypat   3
natom    26
typat    4*1 4*2 18*3
znucl    57 42 8
acell 3*1


rprim
  1.35740734543791E+01 -6.77489962188121E-01  1.78481611136783E-02
 -7.01568348232332E-01  1.35806894883509E+01  1.54831586626936E-01
  2.42551945323926E-02  1.53300690520043E-01  1.33082925044352E+01

             xred      8.3266045032E-01  8.9381795151E-01  8.7459554877E-01
                       3.6392493118E-01  6.8492208759E-01  1.3777803936E-01
                       1.1932684258E-01  3.2272021099E-01  6.2460132307E-01
                       6.6333008545E-01  1.0465904762E-01  3.7655562798E-01
                       2.0421766322E-01  2.0259671712E-01  1.6718561541E-01
                       6.1928797210E-01  3.1184031342E-01  8.3929413261E-01
                       8.8010472430E-01  6.9001803306E-01  3.3766280103E-01
                       2.9370436093E-01  7.9746117886E-01  6.7078229315E-01
                       2.8202873688E-01  3.9875862070E-01  3.1606605758E-01
                       8.0281743191E-01  1.8903461584E-01  6.7964695080E-01
                       6.9058966737E-01  7.9618677907E-01  1.8166517688E-01
                       2.0873893317E-01  5.9563521684E-01  8.1648100280E-01
                       1.0141962387E+00  1.3105832034E-01  3.2885336459E-01
                       4.6156935731E-01  2.5517749969E-01  6.3642065980E-01
                       3.4690755869E-02  7.5578602944E-01  1.2790899730E-01
                       4.8006191173E-01  8.6170714525E-01  8.3679496784E-01
                       3.5880157509E-01  1.0279582514E+00  1.8936259414E-01
                       1.4061316921E-01 -2.6592379163E-02  6.8817674274E-01
                       7.3997014214E-01  5.3594849160E-01  8.2862088451E-01
                       7.8113787578E-01  4.5662769302E-01  3.4503538431E-01
                       7.6724792581E-02  2.0253940237E-01  9.5260032686E-01
                       8.0177623133E-01  8.3576762548E-01  5.2505625306E-01
                       4.3330939078E-01  8.0594109315E-01  4.6117712580E-01
                       7.0120328744E-01  1.5749213470E-01  2.6731817397E-02
                       4.2201663999E-01  3.6239886804E-01  9.9634998561E-01
                       1.0931968326E+00  6.5053905208E-01  4.8459632659E-01
 
nshiftk 1
shiftk 
0.5 0.5 0.5
#chksymbreak 0
kptopt   1
ngkpt    2 2 2

ecut 30
ixc      -116133
nband    104
nstep    150
diemac   4


# Data set 1 - Refinement of already computed GS WFs       
irdwfk1   0
irdden1   0
iscf1     7
tolvrs1   1.0E-20
nstep1    100

# Data Set 2: Response Function calculation : d/dk 
rfelfd2    2 
rfdir2     1    1    1 

nqpt2      1 
qpt2       0.0  0.0  0.0  

getwfk2   -1 
getden2   -1 

kptopt2    2 

iscf2     -3 

tolwfr2    1.0d-22 

# Data set 3 : Response Function calculation - electric field perturbation, phonons, and strain

rfphon3   1            # Will consider phonon-type perturbation 
rfelfd3   3            # Electric Field
rfstrs3   3            # Strains

rfdir3    1   1   1    # Along all reduced coordinate axis 
rfatpol3  1   26        # All the atoms will be displaced 

nqpt3     1            # One wavevector is to be considered 
qpt3      0.0 0.0 0.0  # This wavevector is q=0 (Gamma) 

kptopt3   2            # Automatic generation of k points, taking 
                       # into account the time-reversal symmetry only 

getwfk3   1            # Read the ground-state wavefunctions 
getddk3   2
                                              
tolvrs3   1.0d-20      # SCF stopping criterion 
                       



# Printing flags
prtden    1
prteig    0
prtwf     1
prtposcar 0
prtcif    0

ecutsm  0.5
            ngfft          72      75      75
pawecutdg  30
pawxcdev   0
