#input for KTaO3

ndtset    3

autoparal 1

#Crystal Def.
ntypat   3
natom    26
typat    4*1 4*2 18*3
znucl    57 42 8
acell 3*1


rprim
  1.35689984081643E+01 -2.13107139083049E-03  7.03356423428193E-01
 -5.94822522400183E-03  1.33117059208099E+01  7.36673951667026E-02
  6.96327986877475E-01  7.42480496186299E-02  1.35757088764772E+01

             xred      8.1836677917E-01  8.6981903346E-01  8.7082658735E-01
                       3.9568661953E-01  6.2414868138E-01  1.6470236319E-01
                       1.8096563890E-01  3.6912114600E-01  6.2731023209E-01
                       6.0541212389E-01  1.2408200649E-01  3.3497375247E-01
                       1.8973018170E-01  1.6087858797E-01  1.1924291817E-01
                       7.0167734749E-01  3.3155237798E-01  7.9448921723E-01
                       8.1086000075E-01  6.6200608144E-01  3.8016063192E-01
                       2.9745468457E-01  8.3060156389E-01  7.0414820395E-01
                       3.0508185137E-01  3.1922314798E-01  3.0542556501E-01
                       9.0059470839E-01  1.8339577932E-01  7.1338067230E-01
                       6.9662544309E-01  8.1928758295E-01  1.9338189128E-01
                       9.7549536381E-02  6.8404098880E-01  7.8562881597E-01
                       9.6133491570E-01  1.6356549096E-01  2.3120795414E-01
                       5.2620848227E-01  3.0971726717E-01  6.4151562007E-01
                       4.0684180002E-02  6.6351579622E-01  2.7160242024E-01
                       4.7231459162E-01  8.1284943235E-01  8.5887322233E-01
                       3.4009193730E-01  9.7390924620E-01  2.0106330359E-01
                       2.9898506934E-01  4.3585922496E-02  5.7071022801E-01
                       6.9548461558E-01  5.4285469445E-01  9.2765370078E-01
                       6.6238829498E-01  4.7371711974E-01  3.0109801668E-01
                       2.5114993769E-01  3.6819916417E-01  9.6221760316E-01
                       7.4916621833E-01  8.6730403073E-01  5.3599261182E-01
                       3.6727207003E-01  6.6801112428E-01  5.1728620165E-01
                       6.3552157749E-01  1.6637863669E-01 -1.5983890849E-02
                       1.4395527408E-01  9.0806133860E-03 -8.3950935663E-02
                       8.5543792034E-01  5.0915448351E-01  5.8704309311E-01
 
nshiftk 1
shiftk 
0.5 0.5 0.5
#chksymbreak 0
kptopt   1
ngkpt    2 2 2

ecut 30
ixc      -116133
nband    104
nstep    150
diemac   4


# Data set 1 - Refinement of already computed GS WFs       
irdwfk1   0
irdden1   0
iscf1     7
tolvrs1   1.0E-20
nstep1    100

# Data Set 2: Response Function calculation : d/dk 
rfelfd2    2 
rfdir2     1    1    1 

nqpt2      1 
qpt2       0.0  0.0  0.0  

getwfk2   -1 
getden2   -1 

kptopt2    2 

iscf2     -3 

tolwfr2    1.0d-22 

# Data set 3 : Response Function calculation - electric field perturbation, phonons, and strain

rfphon3   1            # Will consider phonon-type perturbation 
rfelfd3   3            # Electric Field
rfstrs3   3            # Strains

rfdir3    1   1   1    # Along all reduced coordinate axis 
rfatpol3  1   26        # All the atoms will be displaced 

nqpt3     1            # One wavevector is to be considered 
qpt3      0.0 0.0 0.0  # This wavevector is q=0 (Gamma) 

kptopt3   2            # Automatic generation of k points, taking 
                       # into account the time-reversal symmetry only 

getwfk3   1            # Read the ground-state wavefunctions 
getddk3   2
                                              
tolvrs3   1.0d-20      # SCF stopping criterion 
                       



# Printing flags
prtden    1
prteig    0
prtwf     1
prtposcar 0
prtcif    0

ecutsm  0.5
            ngfft          72      75      75
pawecutdg  30
pawxcdev   0
