#input for non-centrosymmetric orthorhombic HfO2

ndtset    1
autoparal 1

#Crystal Def.

nsym     1
ntypat   3
natom    26
typat    4*1 4*2 18*3
znucl    57 42 8

acell 3*1

rprim
  1.32811697448984E+01 -1.27679395072156E-03  1.89008436515584E-03
 -1.21194710644734E-03  1.35411679449900E+01  6.98926390054529E-01
  1.78482205156748E-03  7.17841866482556E-01  1.36923478168684E+01


xred
  8.68472175940324E-01  8.70165854069323E-01  8.18810323817277E-01
  3.68475455978692E-01  6.29589734822278E-01  1.80936856776460E-01
  1.24121305917280E-01  3.34520656535882E-01  6.04272849405283E-01
  6.23843299472490E-01  1.65454760758273E-01  3.95726399453624E-01
  1.61216762281891E-01  1.20693925852720E-01  1.89439862857647E-01
  6.61483532036029E-01  3.79382075093000E-01  8.10443189125143E-01
  8.31154206375556E-01  7.05569404136098E-01  2.97368067755109E-01
  3.31180551402993E-01  7.93938086256732E-01  7.02761449189242E-01
  3.19571466515869E-01  3.07065958415195E-01  3.04558087904174E-01
  8.19682215238534E-01  1.93086432849238E-01  6.95920950224180E-01
  6.84079496619560E-01  7.86241579990565E-01  9.87553698348308E-02
  1.83711484979547E-01  7.12997654455791E-01  9.01185790828394E-01
  9.73669735935129E-01  1.99745435279227E-01  3.39261725716920E-01
  4.73652051276626E-01  2.99992277859768E-01  6.61106164042102E-01
  4.37116052914372E-02  5.71657811977554E-01  3.03001898629238E-01
  5.43515291288862E-01  9.28267059429834E-01  6.97412520740755E-01
  3.68311925781439E-01  9.64186184289317E-01  2.50611893609775E-01
  1.66548982161811E-01 -1.72346803137317E-02  6.35907416206049E-01
  8.68067622620688E-01  5.36519814863395E-01  7.48493057553439E-01
  6.66648175482157E-01  5.16669998173527E-01  3.64403227889320E-01
  1.63229742093308E-01  2.32478396671760E-01  9.62959047973322E-01
  8.11146544323159E-01  8.58512552490086E-01  4.71919905944139E-01
  3.11581243903667E-01  6.41732763322509E-01  5.27573199507293E-01
  6.63819510603365E-01  2.68797669578405E-01  3.74106305124946E-02
  9.63208112043907E-03 -8.53873220914258E-02  1.43858435749815E-01
  5.09473535389896E-01  5.85355915237803E-01  8.55901678762789E-01

kptopt   1
ngkpt    2 2 2
nshiftk 1
shiftk 
0.5 0.5 0.5

ecut       30
pawecutdg  30
pawxcdev   0
ixc      -116133
nband    104
diemac   4

ecutsm  0.5
nstep    100
iscf     7
tolvrs   1.0E-20
ionmov   2
optcell  2
dilatmx  1.04
tolmxf   1e-8
ntime    150
strtarget 2*0.0 1*3.39893e-05 3*0.0



# Printing flags
prtden    1
prteig    0
prtwf     1
prtposcar 0
prtcif    1
