#input for non-centrosymmetric orthorhombic HfO2

ndtset    2

autoparal 1

#Crystal Def.
ntypat   3
natom    26
typat    4*1 4*2 18*3
znucl    57 42 8
acell 3*1

rprim
  1.32811697133723E+01 -1.27719155105347E-03  1.89064334459145E-03
 -1.21232298960861E-03  1.35411684633218E+01  6.98926168207101E-01
  1.78537682107634E-03  7.17841668816173E-01  1.36923478327546E+01

             xred      8.6847220928E-01  8.7016585030E-01  8.1881029420E-01
                       3.6847542779E-01  6.2958971596E-01  1.8093684143E-01
                       1.2412135893E-01  3.3452062649E-01  6.0427287319E-01
                       6.2384328744E-01  1.6545479592E-01  3.9572635673E-01
                       1.6121674844E-01  1.2069390237E-01  1.8943986572E-01
                       6.6148356125E-01  3.7938208346E-01  8.1044316236E-01
                       8.3115414975E-01  7.0556938347E-01  2.9736811908E-01
                       3.3118059253E-01  7.9393805826E-01  7.0276144109E-01
                       3.1957143517E-01  3.0706598177E-01  3.0455809577E-01
                       8.1968223874E-01  1.9308641961E-01  6.9592100353E-01
                       6.8407953169E-01  7.8624149450E-01  9.8755348313E-02
                       1.8371144013E-01  7.1299758211E-01  9.0118574463E-01
                       9.7366974511E-01  1.9974540685E-01  3.3926178385E-01
                       4.7365206752E-01  2.9999227457E-01  6.6110615353E-01
                       4.3711584396E-02  5.7165786186E-01  3.0300206769E-01
                       5.4351530241E-01  9.2826707860E-01  6.9741263553E-01
                       3.6831195898E-01  9.6418623249E-01  2.5061179870E-01
                       1.6654901348E-01 -1.7234730478E-02  6.3590741361E-01
                       8.6806761535E-01  5.3651981977E-01  7.4849290275E-01
                       6.6664808139E-01  5.1667000967E-01  3.6440324104E-01
                       1.6322968938E-01  2.3247843306E-01  9.6295907593E-01
                       8.1114642665E-01  8.5851261840E-01  4.7191988022E-01
                       3.1158136970E-01  6.4173277470E-01  5.2757314424E-01
                       6.6381953373E-01  2.6879776099E-01  3.7410642103E-02
                       9.6320904483E-03 -8.5387358373E-02  1.4385847383E-01
                       5.0947354035E-01  5.8535592367E-01  8.5590164092E-01
 
kptopt   1
            ngfft          72      75      75
ngkpt    2 2 2
nshiftk 1
shiftk 
0.5 0.5 0.5
ecut       30
ecutsm  0.5
pawecutdg  30
pawxcdev   0
ixc      -116133
nband    104
diemac   4

# First SCF run       
#irdwfk1   1
nstep1    100
iscf1     7
tolvrs1   1.0E-20

#Refinement using tolwfr
nstep2    250
getwfk2   -1
iscf2     7
tolwfr2   1.0E-20

# Printing flags
prtden    1
prteig    0
prtwf     1
prtposcar 0
prtcif    1
