#input for KTaO3

ndtset    3

autoparal 1

#Crystal Def.
ntypat   3
natom    26
typat    4*1 4*2 18*3
znucl    57 42 8
acell 3*1


rprim
  1.32943585383111E+01  1.74295771354254E-01  1.19367257119056E-01
  1.80236402588193E-01  1.36198007368362E+01 -1.94213292572578E-01
  1.41625963245079E-01 -1.93419588534418E-01  1.35938414659845E+01

             xred      8.8129757274E-01  8.5454980677E-01  8.6467440563E-01
                       3.3475762282E-01  6.1159210558E-01  1.9632933642E-01
                       1.4225404774E-01  3.5036340412E-01  6.4073775411E-01
                       6.5192874425E-01  1.2400416043E-01  3.1836184917E-01
                       1.3573928046E-01  1.7115044166E-01  1.8492592899E-01
                       6.5871072682E-01  3.4183577361E-01  8.0938290597E-01
                       8.4723429151E-01  6.8096825064E-01  3.2484011717E-01
                       3.6900557789E-01  8.4884998243E-01  7.0902396433E-01
                       3.0336516621E-01  6.3893154394E-01  8.1823898903E-01
                       3.1906737444E-01  3.0023700039E-01  3.3396110501E-01
                       6.6930918719E-01  7.9829948143E-01  1.6428429796E-01
                       8.5282256086E-01  1.9005797006E-01  7.5714610855E-01
                       1.1698011919E-02  6.8163039755E-01  1.1369219396E-01
                       2.7719171991E-01  9.6572799881E-01  1.4692326859E-01
                       8.1035964238E-01  8.6921813784E-01  4.9465109873E-01
                       7.5760928634E-01  5.5949136453E-01  7.6606352217E-01
                       5.5826040929E-01  9.5301476831E-01  8.2393570876E-01
                       9.7974027693E-01  2.0776101217E-01  3.9979389120E-01
                       7.0536315717E-01  4.8606561997E-01  3.6286859284E-01
                       1.6624558823E-01  3.3373383300E-01  1.0034812776E+00
                       4.8276531617E-01  2.8386321816E-01  6.4580565197E-01
                       1.6996847014E-01  3.5534597842E-03  7.2682227136E-01
                       1.0789933641E+00  6.0555833745E-01  4.4578071695E-01
                       5.7175259051E-01  3.3874804152E-01  4.0894775244E-02
                       4.2637068781E-01  8.1836485566E-01  4.7160895859E-01
                      -9.6973059174E-02  8.5289407661E-02  1.0941742693E+00
 
nshiftk 1
shiftk 
0.5 0.5 0.5
#chksymbreak 0
kptopt   1
ngkpt    2 2 2

ecut 30
ixc      -116133
nband    104
nstep    150
diemac   4


# Data set 1 - Refinement of already computed GS WFs       
irdwfk1   0
irdden1   0
iscf1     7
tolvrs1   1.0E-20
nstep1    100

# Data Set 2: Response Function calculation : d/dk 
rfelfd2    2 
rfdir2     1    1    1 

nqpt2      1 
qpt2       0.0  0.0  0.0  

getwfk2   -1 
getden2   -1 

kptopt2    2 

iscf2     -3 

tolwfr2    1.0d-22 

# Data set 3 : Response Function calculation - electric field perturbation, phonons, and strain

rfphon3   1            # Will consider phonon-type perturbation 
rfelfd3   3            # Electric Field
rfstrs3   3            # Strains

rfdir3    1   1   1    # Along all reduced coordinate axis 
rfatpol3  1   26        # All the atoms will be displaced 

nqpt3     1            # One wavevector is to be considered 
qpt3      0.0 0.0 0.0  # This wavevector is q=0 (Gamma) 

kptopt3   2            # Automatic generation of k points, taking 
                       # into account the time-reversal symmetry only 

getwfk3   1            # Read the ground-state wavefunctions 
getddk3   2
                                              
tolvrs3   1.0d-20      # SCF stopping criterion 
                       



# Printing flags
prtden    1
prteig    0
prtwf     1
prtposcar 0
prtcif    0

ecutsm  0.5
            ngfft          72      75      75
pawecutdg  30
pawxcdev   0
