#input for non-centrosymmetric orthorhombic HfO2

ndtset    1
autoparal 1

#Crystal Def.

nsym      1
ntypat   3
natom    26
typat    4*1 4*2 18*3
znucl    57 42 8

acell 3*1

rprim
  1.33139659657526E+01  1.52215755395084E-01  3.62298742586071E-02
  1.53117329428369E-01  1.35770428711106E+01 -6.84464904976017E-01
  2.88613720350019E-02 -7.09393322152250E-01  1.35694477264171E+01

xred      
  8.75872710499004E-01  8.34702732211931E-01  8.96163690196274E-01
  3.76048283171441E-01  6.64813523236665E-01  1.05930599435211E-01
  1.33894384118890E-01  3.70967783150449E-01  6.81669760076577E-01
  6.28441153133358E-01  1.28308162844522E-01  3.18539249563222E-01
  1.67162158560286E-01  2.05841422182086E-01  2.01147827058027E-01
  6.70976562373175E-01  2.96293261363716E-01  7.96783235168344E-01
  8.37271778179626E-01  6.19994697106179E-01  3.11681502912110E-01
  3.39296336541299E-01  8.81270865272309E-01  6.90179140277632E-01
  3.16631088690899E-01  2.86446457209802E-01  3.98656293597550E-01
  8.15529162368013E-01  2.12873803739359E-01  5.95719926873448E-01
  6.80383933879217E-01  8.06388459175030E-01  1.95545702898992E-01
  1.81181284847984E-01  6.94319327434633E-01  8.04249678725726E-01
  9.56240844424400E-01  7.40389604655834E-02  1.93612304026321E-01
  4.58196252430516E-01  4.31912932709303E-01  7.97054167239202E-01
  2.63308767798435E-02  6.98191204589011E-01  1.63605319525870E-01
  5.25829347792178E-01  7.98963727501613E-01  8.40525769045036E-01
  3.32995296093241E-01  1.01443316666389E+00  1.36699613122467E-01
  1.29983228425894E-01  3.82337220696558E-02  7.52965655221360E-01
  8.33690556186853E-01  4.80565608407461E-01  8.67563988200151E-01
  6.33567763831136E-01  4.64719781585565E-01  2.50489582978009E-01
  1.92304988059797E-01  3.58215225209052E-01  1.02563902560003E+00
  8.34160177779423E-01  7.29374610555996E-01  5.41039829925571E-01
  3.38634015868384E-01  7.70258912211642E-01  4.61358653091592E-01
  6.85580588307968E-01  1.40943480202853E-01 -2.85174417005858E-02
  9.91629945123335E-01  4.12727927755500E-01  3.56539291156706E-01
  4.88167282490056E-01  1.08520024509930E+00  6.45157635853257E-01
kptopt   1
            ngfft          72      75      75

ngkpt    2 2 2
nshiftk 1
shiftk 
0.5 0.5 0.5

ecut       30
pawecutdg  30
pawxcdev   0
ixc      -116133
nband    104
diemac   4

ecutsm  0.5
nstep    100
iscf     7
tolvrs   1.0E-20
ionmov   2
optcell  2
dilatmx  1.04
tolmxf   1e-8
ntime    250
strtarget 5*0.0 3.39893e-05  



# Printing flags
prtden    1
prteig    0
prtwf     1
prtposcar 0
prtcif    1
