#input for KTaO3

ndtset    3

autoparal 1

#Crystal Def.
ntypat   3
natom    26
typat    4*1 4*2 18*3
znucl    57 42 8
acell 3*1


rprim
  1.33139657621734E+01  1.52215579795075E-01  3.62298156463247E-02
  1.53117152730148E-01  1.35770427231351E+01 -6.84464907846221E-01
  2.88613203664124E-02 -7.09393305025592E-01  1.35694479655703E+01

             xred      8.7587273808E-01  8.3470272444E-01  8.9616371017E-01
                       3.7604830073E-01  6.6481351145E-01  1.0593060657E-01
                       1.3389441115E-01  3.7096777977E-01  6.8166974224E-01
                       6.2844114900E-01  1.2830822076E-01  3.1853924613E-01
                       1.6716213492E-01  2.0584141022E-01  2.0114781782E-01
                       6.7097657301E-01  2.9629325144E-01  7.9678324647E-01
                       8.3727177322E-01  6.1999472590E-01  3.1168150260E-01
                       3.3929634410E-01  8.8127086621E-01  6.9017913070E-01
                       3.1663106050E-01  2.8644647209E-01  3.9865627250E-01
                       8.1552916526E-01  2.1287381897E-01  5.9571993226E-01
                       6.8038393620E-01  8.0638847351E-01  1.9554571704E-01
                       1.8118130073E-01  6.9431930824E-01  8.0424966087E-01
                       9.5624084601E-01  7.4038897933E-02  1.9361233127E-01
                       4.5819626435E-01  4.3191292547E-01  7.9705416952E-01
                       2.6330884028E-02  6.9819118860E-01  1.6360532487E-01
                       5.2582936765E-01  7.9896372483E-01  8.4052575599E-01
                       3.3299529895E-01  1.0144331735E+00  1.3669961992E-01
                       1.2998322690E-01  3.8233717893E-02  7.5296566981E-01
                       8.3369057489E-01  4.8056559740E-01  8.6756400543E-01
                       6.3356772326E-01  4.6471982060E-01  2.5048960342E-01
                       1.9230495056E-01  3.5821522116E-01  1.0256390231E+00
                       8.3416024024E-01  7.2937464834E-01  5.4103981487E-01
                       3.3863399563E-01  7.7025890077E-01  4.6135864882E-01
                       6.8558059054E-01  1.4094345947E-01 -2.8517434386E-02
                       9.9162988411E-01  4.1272789819E-01  3.5653926036E-01
                       4.8816726595E-01  1.0852002627E+00  6.4515762172E-01
 
nshiftk 1
shiftk 
0.5 0.5 0.5
#chksymbreak 0
kptopt   1
ngkpt    2 2 2

ecut 30
ixc      -116133
nband    104
nstep    150
diemac   4


# Data set 1 - Refinement of already computed GS WFs       
irdwfk1   0
irdden1   0
iscf1     7
tolvrs1   1.0E-20
nstep1    100

# Data Set 2: Response Function calculation : d/dk 
rfelfd2    2 
rfdir2     1    1    1 

nqpt2      1 
qpt2       0.0  0.0  0.0  

getwfk2   -1 
getden2   -1 

kptopt2    2 

iscf2     -3 

tolwfr2    1.0d-22 

# Data set 3 : Response Function calculation - electric field perturbation, phonons, and strain

rfphon3   1            # Will consider phonon-type perturbation 
rfelfd3   3            # Electric Field
rfstrs3   3            # Strains

rfdir3    1   1   1    # Along all reduced coordinate axis 
rfatpol3  1   26        # All the atoms will be displaced 

nqpt3     1            # One wavevector is to be considered 
qpt3      0.0 0.0 0.0  # This wavevector is q=0 (Gamma) 

kptopt3   2            # Automatic generation of k points, taking 
                       # into account the time-reversal symmetry only 

getwfk3   1            # Read the ground-state wavefunctions 
getddk3   2
                                              
tolvrs3   1.0d-20      # SCF stopping criterion 
                       



# Printing flags
prtden    1
prteig    0
prtwf     1
prtposcar 0
prtcif    0

ecutsm  0.5
            ngfft          72      75      75
pawecutdg  30
pawxcdev   0
