#input for non-centrosymmetric orthorhombic HfO2

ndtset    1
autoparal 1

#Crystal Def.

nsym      1
ntypat   3
natom    26
typat    4*1 4*2 18*3
znucl    57 42 8

acell 3*1

rprim
  1.33397781586193E+01  8.48138321314107E-04 -1.00706331035997E-03
  7.09107369823005E-04  1.36098522142262E+01 -6.72619648118879E-01
 -9.88509177883701E-04 -7.05088957638467E-01  1.34545761155491E+01

xred      
  8.75962627166463E-01  8.35928677549277E-01  8.94994121295558E-01
  3.75700498955331E-01  6.64068617837909E-01  1.05020514021335E-01
  1.29116018649795E-01  3.73739651738710E-01  6.81027981109125E-01
  6.28856376524061E-01  1.26415460152102E-01  3.18794255947415E-01
  1.68569620925268E-01  2.04208516695225E-01  2.01547596644492E-01
  6.68816770322080E-01  2.96459310626605E-01  7.98847755216599E-01
  8.38485488203022E-01  6.18503519577727E-01  3.10555880736552E-01
  3.38769944529244E-01  8.81372187397257E-01  6.89172854518702E-01
  3.16398337962514E-01  2.85016016071496E-01  4.01875741458198E-01
  8.15994906316797E-01  2.16288030747579E-01  5.98034492345266E-01
  6.81131978943507E-01  8.04950824965225E-01  1.96093159692291E-01
  1.81123423363271E-01  6.94970937665351E-01  8.04010979015056E-01
  9.56531173011238E-01  7.19673073064111E-02  1.99667183838404E-01
  4.56720191419916E-01  4.28468704814617E-01  8.00402720215230E-01
  2.61458053321972E-02  7.00474231813724E-01  1.61348429420526E-01
  5.26050128592145E-01  7.99662284008242E-01  8.38989835900811E-01
  3.31500663067022E-01  1.01631018714099E+00  1.32255319573000E-01
  1.32642860995010E-01  3.72752684248114E-02  7.49543276943042E-01
  8.31875772912467E-01  4.83811152938832E-01  8.69024274995474E-01
  6.32984371318397E-01  4.62019969893114E-01  2.49513456947278E-01
  1.88690964060704E-01  3.58778617016100E-01  1.02564821347335E+00
  8.37109760522881E-01  7.27231898384052E-01  5.42035958687479E-01
  3.37753521770990E-01  7.71376099575866E-01  4.58158995971054E-01
  6.88416783151417E-01  1.40627790997366E-01 -2.62888608618288E-02
  9.92506860277778E-01  4.14987800551638E-01  3.55058080203456E-01
  4.92145151662315E-01  1.08508693606238E+00  6.44667782760225E-01

kptopt   1
            ngfft          72      75      75

ngkpt    2 2 2
nshiftk 1
shiftk 
0.5 0.5 0.5

ecut       30
pawecutdg  30
pawxcdev   0
ixc      -116133
nband    104
diemac   4

ecutsm  0.5
nstep    100
iscf     7
tolvrs   1.0E-20
ionmov   2
optcell  2
dilatmx  1.04
tolmxf   1e-8
ntime    250
strtarget 0.0 0.0 -3.39893e-05 3*0.0 



# Printing flags
prtden    1
prteig    0
prtwf     1
prtposcar 0
prtcif    1
