#input for KTaO3

ndtset    3

autoparal 1

#Crystal Def.
ntypat   3
natom    26
typat    4*1 4*2 18*3
znucl    57 42 8
acell 3*1


rprim
  1.33245172249051E+01  3.27468603280416E-05 -1.94374996139719E-03
 -7.57414320637039E-05  1.35220244336810E+01 -6.87760807373227E-01
 -1.88035518976386E-03 -7.08775160062394E-01  1.35886139755421E+01

             xred      8.7625033824E-01  8.3545323848E-01  8.9519444670E-01
                       3.7611326107E-01  6.6482217278E-01  1.0507094864E-01
                       1.3055047284E-01  3.7146364052E-01  6.8117100244E-01
                       6.3065029383E-01  1.2919074760E-01  3.1857301618E-01
                       1.6854423552E-01  2.0537721654E-01  2.0268400000E-01
                       6.6856844853E-01  2.9515999464E-01  7.9720330955E-01
                       8.3858001578E-01  6.1998598607E-01  3.1075028920E-01
                       3.3875570816E-01  8.7979065276E-01  6.8925937206E-01
                       3.1606729740E-01  2.8757126883E-01  4.0161553446E-01
                       8.1616711368E-01  2.1304626048E-01  5.9846440312E-01
                       6.8104767172E-01  8.0629655702E-01  1.9565246194E-01
                       1.8096170893E-01  6.9386169040E-01  8.0516688992E-01
                       9.5645535207E-01  7.1517844653E-02  1.9663615756E-01
                       4.5658598109E-01  4.2892729071E-01  8.0195432063E-01
                       2.6235336500E-02  6.9995672611E-01  1.6174647638E-01
                       5.2619153757E-01  8.0022949302E-01  8.3895352291E-01
                       3.3278529513E-01  1.0164110860E+00  1.3576952080E-01
                       1.3251799940E-01  3.6904021916E-02  7.5066572522E-01
                       8.3277531744E-01  4.8382312053E-01  8.6521508414E-01
                       6.3246209533E-01  4.6276501132E-01  2.4880661948E-01
                       1.8891461544E-01  3.5891201230E-01  1.0271230972E+00
                       8.3704763061E-01  7.3016930824E-01  5.3971107705E-01
                       3.3666817630E-01  7.6792206367E-01  4.6092821605E-01
                       6.8795643521E-01  1.4105719327E-01 -2.7635739915E-02
                       9.9052932897E-01  4.1371435434E-01  3.5580906343E-01
                       4.9061833318E-01  1.0856710478E+00  6.4351118490E-01
 
nshiftk 1
shiftk 
0.5 0.5 0.5
#chksymbreak 0
kptopt   1
ngkpt    2 2 2

ecut 30
ixc      -116133
nband    104
nstep    150
diemac   4


# Data set 1 - Refinement of already computed GS WFs       
irdwfk1   0
irdden1   0
iscf1     7
tolvrs1   1.0E-20
nstep1    100

# Data Set 2: Response Function calculation : d/dk 
rfelfd2    2 
rfdir2     1    1    1 

nqpt2      1 
qpt2       0.0  0.0  0.0  

getwfk2   -1 
getden2   -1 

kptopt2    2 

iscf2     -3 

tolwfr2    1.0d-22 

# Data set 3 : Response Function calculation - electric field perturbation, phonons, and strain

rfphon3   1            # Will consider phonon-type perturbation 
rfelfd3   3            # Electric Field
rfstrs3   3            # Strains

rfdir3    1   1   1    # Along all reduced coordinate axis 
rfatpol3  1   26        # All the atoms will be displaced 

nqpt3     1            # One wavevector is to be considered 
qpt3      0.0 0.0 0.0  # This wavevector is q=0 (Gamma) 

kptopt3   2            # Automatic generation of k points, taking 
                       # into account the time-reversal symmetry only 

getwfk3   1            # Read the ground-state wavefunctions 
getddk3   2
                                              
tolvrs3   1.0d-20      # SCF stopping criterion 
                       



# Printing flags
prtden    1
prteig    0
prtwf     1
prtposcar 0
prtcif    0

ecutsm  0.5
            ngfft          72      75      75
pawecutdg  30
pawxcdev   0
