#input for non-centrosymmetric orthorhombic HfO2

ndtset    1

autoparal 1

#Crystal Def.
ntypat   3
natom    26
typat    4*1 4*2 18*3
znucl    57 42 8
acell 3*1
nsym 0

rprim
  1.35736666659737E+01 -7.06565467384718E-01  0.00000000000000E+00
 -7.16629757155022E-01  1.35783534645441E+01  0.00000000000000E+00
  0.00000000000000E+00  0.00000000000000E+00  1.33102488064460E+01

xred     
  8.34706284160178E-01  8.95269410705616E-01  8.76011103809573E-01
  3.71081683981546E-01  6.81816127761336E-01  1.30580002125231E-01
  1.28918316018454E-01  3.18183872238664E-01  6.30580002125231E-01
  6.65293715839822E-01  1.04730589294384E-01  3.76011103809573E-01
  2.05712812162677E-01  2.02642532706365E-01  1.68846418396356E-01
  6.20153330601458E-01  3.10841855271344E-01  8.38443869740878E-01
  8.79846669398542E-01  6.89158144728656E-01  3.38443869740878E-01
  2.94287187837323E-01  7.97357467293635E-01  6.68846418396356E-01
  2.86628664023860E-01  4.02227418948749E-01  3.16280481367314E-01
  8.06453675190259E-01  1.95739504154510E-01  6.80799016054339E-01
  6.93546324809741E-01  8.04260495845490E-01  1.80799016054339E-01
  2.13371335976140E-01  5.97772581051251E-01  8.16280481367314E-01
  1.01736234575378E+00  1.34627727042500E-01  3.32918302032140E-01
  4.63629549770046E-01  2.48861939656038E-01  6.32176681215233E-01
  3.63704502299544E-02  7.51138060343962E-01  1.32176681215233E-01
  4.82637654246221E-01  8.65372272957500E-01  8.32918302032140E-01
  3.59251491663363E-01  1.02761389658314E+00  1.89029259997439E-01
  1.40748508336637E-01 -2.76138965831371E-02  6.89029259997439E-01
  7.30753243548248E-01  5.39799719457060E-01  8.36146272715072E-01
  7.69246756451752E-01  4.60200280542940E-01  3.36146272715072E-01
  7.20502187441492E-02  1.97700399198977E-01  9.56834316039700E-01
  7.99859916052690E-01  8.38578914362422E-01  5.26127804487842E-01
  4.27949781255851E-01  8.02299600801023E-01  4.56834316039700E-01
  7.00140083947310E-01  1.61421085637578E-01  2.61278044878423E-02
  4.15064920447131E-01  3.55943196939920E-01  9.90806472026964E-01
  1.08493507955287E+00  6.44056803060080E-01  4.90806472026964E-01


kptopt   1
ngkpt    2 2 2
nshiftk 1
shiftk 
0.5 0.5 0.5

ecut       30
pawecutdg  30
pawxcdev   0
ixc      -116133
nband    104
diemac   4
ecutsm   0.5

# First SCF run       
#irdwfk1   1
nstep    100
iscf     7
tolvrs   1.0E-20
ionmov   2
optcell  2
dilatmx  1.04
tolmxf   1e-10
ntime    150

# Printing flags
prtden    1
prteig    0
prtwf     1
prtposcar 0
prtcif    0
