#input for non-centrosymmetric orthorhombic HfO2

ndtset    1

autoparal 1

#Crystal Def.
ntypat   3
natom    26
typat    4*1 4*2 18*3
znucl    57 42 8
nsym 0

acell 3*1

rprim
  1.33307677441108E+01  0.00000000000000E+00  0.00000000000000E+00
  0.00000000000000E+00  1.35364002523096E+01  3.24392177352819E-01
  0.00000000000000E+00  3.50793315932436E-01  1.35461245765767E+01

xred      
  8.70669512012558E-01  8.80979395222015E-01  8.23348073551215E-01
  3.70669512012558E-01  6.19020604777985E-01  1.76651926448785E-01
  1.27274797061469E-01  3.38709640487133E-01  6.09477822428832E-01
  6.27274797061469E-01  1.61290359512867E-01  3.90522177571167E-01
  1.61357548074627E-01  1.17678792412982E-01  1.89569179022577E-01
  6.61357548074627E-01  3.82321207587018E-01  8.10430820977423E-01
  8.30819156550312E-01  7.00574338988281E-01  2.95873477075428E-01
  3.30819156550312E-01  7.99425661011719E-01  7.04126522924571E-01
  3.20412987419464E-01  3.03282159587397E-01  3.07270695012590E-01
  8.20412987419464E-01  1.96717840412603E-01  6.92729304987409E-01
  6.82851401734115E-01  7.80369303904109E-01  1.00844949090608E-01
  1.82851401734115E-01  7.19630696095892E-01  8.99155050909391E-01
  9.75393908211509E-01  2.03945808233400E-01  3.43761739983738E-01
  4.75393908211509E-01  2.96054191766601E-01  6.56238260016262E-01
  4.52213995437795E-02  5.72559127478547E-01  2.90938528265282E-01
  5.45221399543779E-01  9.27440872521453E-01  7.09061471734717E-01
  3.64999891220461E-01  9.58832784857010E-01  2.44834694271059E-01
  1.69544629041868E-01 -1.40738903136504E-02  6.36339234419449E-01
  8.64999891220461E-01  5.41167215142990E-01  7.55165305728941E-01
  6.69544629041868E-01  5.14073890313651E-01  3.63660765580550E-01
  1.59688272094225E-01  2.22769803956648E-01  9.62436344232094E-01
  8.13408661141397E-01  8.58877357353838E-01  4.76343223776338E-01
  3.13408661141397E-01  6.41122642646162E-01  5.23656776223661E-01
  6.59688272094225E-01  2.77230196043352E-01  3.75636557679052E-02
  3.35783590714870E-03 -8.49007821309734E-02  1.46235551991313E-01
  5.03357835907149E-01  5.84900782130974E-01  8.53764448008686E-01

kptopt   1
ngkpt    2 2 2
nshiftk 1
shiftk 
0.5 0.5 0.5

ecut       30
pawecutdg  30
pawxcdev   0
ixc      -116133
nband    104
diemac   4
ecutsm   0.5

# First SCF run       
#irdwfk1   1
nstep    100
iscf     7
tolvrs   1.0E-20
ionmov   2
optcell  2
dilatmx  1.04
tolmxf   1e-8
ntime    150
strtarget 3*0.0  -0.00005098394513175399   2*0.0

# Printing flags
prtden    1
prteig    0
prtwf     1
prtposcar 0
prtcif    0
