#input for non-centrosymmetric orthorhombic HfO2

ndtset    2

autoparal 1

#Crystal Def.
ntypat   3
natom    26
typat    4*1 4*2 18*3
znucl    57 42 8
acell 3*1

rprim
  1.33307687387269E+01  0.00000000000000E+00  0.00000000000000E+00
  0.00000000000000E+00  1.35364109645307E+01  3.24392471044393E-01
  0.00000000000000E+00  3.50794072932325E-01  1.35461168362690E+01

             xred      8.7066964894E-01  8.8097963867E-01  8.2334800732E-01
                       3.7066964894E-01  6.1902036133E-01  1.7665199268E-01
                       1.2727518829E-01  3.3870925666E-01  6.0947800315E-01
                       6.2727518829E-01  1.6129074334E-01  3.9052199685E-01
                       1.6135768226E-01  1.1767876181E-01  1.8956902404E-01
                       6.6135768226E-01  3.8232123819E-01  8.1043097596E-01
                       8.3081898997E-01  7.0057417523E-01  2.9587383161E-01
                       3.3081898997E-01  7.9942582477E-01  7.0412616839E-01
                       3.2041326034E-01  3.0328218541E-01  3.0727015553E-01
                       8.2041326034E-01  1.9671781459E-01  6.9272984447E-01
                       6.8285148583E-01  7.8036726985E-01  1.0084455371E-01
                       1.8285148583E-01  7.1963273015E-01  8.9915544629E-01
                       9.7539429739E-01  2.0394646584E-01  3.4376196759E-01
                       4.7539429739E-01  2.9605353416E-01  6.5623803241E-01
                       4.5221289602E-02  5.7255948931E-01  2.9093832030E-01
                       5.4522128960E-01  9.2744051069E-01  7.0906167970E-01
                       3.6499951266E-01  9.5883248482E-01  2.4483445990E-01
                       1.6954489505E-01 -1.4074033274E-02  6.3633765813E-01
                       8.6499951266E-01  5.4116751518E-01  7.5516554010E-01
                       6.6954489505E-01  5.1407403327E-01  3.6366234187E-01
                       1.5968873090E-01  2.2276926946E-01  9.6243576414E-01
                       8.1340813052E-01  8.5887779272E-01  4.7634306219E-01
                       3.1340813052E-01  6.4112220728E-01  5.2365693781E-01
                       6.5968873090E-01  2.7723073054E-01  3.7564235857E-02
                       3.3568882620E-03 -8.4899953740E-02  1.4623571562E-01
                       5.0335688826E-01  5.8489995374E-01  8.5376428438E-01
 
kptopt   1
            ngfft          72      75      75
ngkpt    2 2 2
nshiftk 1
shiftk 
0.5 0.5 0.5
ecut       30
ecutsm   0.5
pawecutdg  30
pawxcdev   0
ixc      -116133
nband    104
diemac   4

# First SCF run       
#irdwfk1   1
nstep1    100
iscf1     7
tolvrs1   1.0E-20

#Refinement using tolwfr
nstep2    250
getwfk2   -1
iscf2     7
tolwfr2   1.0E-20

# Printing flags
prtden    1
prteig    0
prtwf     1
prtposcar 0
prtcif    1
