#input for non-centrosymmetric orthorhombic HfO2

ndtset    2

autoparal 1

#Crystal Def.
ntypat   3
natom    104
typat    16*1 16*2 72*3
            znucl       57.00000   42.00000    8.00000
acell 3*1

rprim
  2.68234874165552E+01 -9.49085350058245E-01  5.66598735774824E-02
 -9.50555179070586E-01  2.72679235247978E+01 -8.27455158885647E-02
  2.26701483479052E-02 -4.16053385787483E-02  1.35672778085379E+01

             xred      4.2840069847E-01  4.3617376668E-01  8.2916734983E-01
                       1.4473174667E-01  3.0215434916E-01  1.1300130031E-01
                       1.0531913409E-01  1.6716289468E-01  5.9274612549E-01
                       3.2765725717E-01  5.8903159433E-02  3.3231033049E-01
                       9.1149080065E-01  4.3822469462E-01  8.7653459830E-01
                       6.8241478536E-01  3.3812131911E-01  1.7146917177E-01
                       5.6646767527E-01  2.0045884021E-01  7.1216687393E-01
                       8.3513255355E-01  7.7526440463E-02  3.6796739748E-01
                       4.3430780335E-01  9.3883578899E-01  8.4273427025E-01
                       1.8724623557E-01  8.2714657251E-01  1.4115501039E-01
                       9.8118813115E-02  6.7077498532E-01  6.1409967082E-01
                       3.2559112401E-01  5.6872269519E-01  3.3875083056E-01
                       9.0850254812E-01  9.4246858991E-01  8.5983945929E-01
                       6.5822437082E-01  8.1715274433E-01  1.9949014523E-01
                       5.5694521652E-01  6.8349800857E-01  6.5468850723E-01
                       8.1005874501E-01  5.7394188390E-01  3.4611486921E-01
                       9.5278314335E-02  6.2795757587E-02  1.5478593055E-01
                       3.2490180036E-01  1.6878231085E-01  7.8550344708E-01
                       3.9942205248E-01  3.2804093922E-01  3.0717667170E-01
                       1.5565334778E-01  4.0197992704E-01  6.5266857129E-01
                       5.9962321892E-01  9.6645596051E-02  1.8072222719E-01
                       8.4753271125E-01  1.6825846085E-01  8.2157914053E-01
                       9.1799621089E-01  3.3339109636E-01  3.2159634986E-01
                       6.6890044661E-01  4.2599707690E-01  7.0702611439E-01
                       8.3070869471E-02  5.4732150164E-01  1.7942578284E-01
                       3.2031430092E-01  6.6371767162E-01  8.1342721649E-01
                       4.2449160418E-01  8.4453384817E-01  3.0050805710E-01
                       1.3814818949E-01  8.9914045277E-01  6.9687132802E-01
                       5.7305057665E-01  5.8602566322E-01  1.9849003507E-01
                       8.4183025865E-01  6.7651507945E-01  8.2672191076E-01
                       9.1075451307E-01  8.2968215685E-01  3.2779215438E-01
                       6.7565339049E-01  9.3525291923E-01  7.1674967164E-01
                       6.9700273274E-02  3.4453509640E-01  8.0413178291E-01
                       1.7690138833E-01  1.5604998961E-01  2.7684178417E-01
                       3.2424309931E-01  3.5016815394E-01  1.1694809944E-01
                       4.2634432886E-01  9.5471714449E-02  6.9531984929E-01
                       5.8177707782E-01  3.5451731172E-01  8.6557425549E-01
                       6.0691826318E-01  1.5313991993E-01  3.9779733875E-01
                       8.3817864221E-01  4.2020210061E-01  2.1333476656E-01
                       9.3419674205E-01  1.4719188415E-01  6.4521951187E-01
                       6.3032323315E-02  8.1164765441E-01  8.0354118065E-01
                       1.5368206211E-01  6.4926747424E-01  2.6041245203E-01
                       3.4454663245E-01  9.1309922113E-01  1.3969573056E-01
                       4.1010950944E-01  5.8840575699E-01  6.9573865819E-01
                       5.7429021886E-01  8.5164614083E-01  7.5148654599E-01
                       6.5720995141E-01  6.6001068821E-01  3.6248348144E-01
                       8.7316177911E-01  9.2864886355E-01  2.0658953671E-01
                       9.2055294667E-01  6.4859740147E-01  6.4208095579E-01
                       7.9945278708E-02  1.4293787140E-01  9.6569889833E-01
                       1.0011857546E+00  6.6569368684E-02  3.1752507198E-01
                       1.8427204770E-01  9.8358976527E-01  2.5526899991E-01
                       3.9639590447E-01  4.2075809026E-01  4.7271760132E-01
                       3.6321636609E-01  2.2255731501E-01  4.1604122212E-01
                       5.1329392399E-01  3.1130012165E-01  2.2675317749E-01
                       3.1610177987E-01  1.2070002254E-01  8.0197491617E-03
                       4.1618478213E-01  2.6711447742E-01  7.8188778860E-01
                       2.4851788425E-01  9.3115277657E-02  6.2309090182E-01
                       2.5772070215E-01  4.4276555204E-01  7.7234108146E-01
                       1.7911019461E-01  3.2831667789E-01  4.6141885810E-01
                       1.0442305086E-01  5.0087583179E-01  5.6729612872E-01
                       9.1517331142E-03  4.0559896376E-01  1.5053600723E-01
                       9.2145473924E-01  3.7687002442E-01  5.4819638388E-01
                       8.1921622553E-01  2.4365644087E-01  3.0749284659E-01
                       4.8204976692E-01  5.8208936878E-02  1.2935450847E-01
                       6.4177679852E-01  1.8486169535E-01  1.0217545198E+00
                       6.7973853452E-01  1.0092569154E+00  1.9553104877E-01
                       7.5268862382E-01  3.8890171082E-01  8.8852228395E-01
                       6.4965119242E-01  3.4577633619E-01  5.1900555018E-01
                       5.8537459478E-01  5.1516637927E-01  7.0644484667E-01
                       8.4903935058E-01  8.7744981056E-02  1.2967632895E-02
                       8.8970633162E-01  2.7193580917E-01  9.3386674278E-01
                       7.4350991429E-01  1.9425314075E-01  7.0816615051E-01
                       3.2878248962E-01  5.9610389401E-01  1.8301426281E-02
                       3.9854413783E-01  7.6538613112E-01  8.0703552276E-01
                       2.5184719558E-01  6.3304158835E-01  5.9221399972E-01
                       1.8024930922E-01  4.7174063678E-01  2.0054361375E-01
                       5.2573061122E-02  5.6484447666E-01  9.4229009793E-01
                       9.8199047941E-01  5.6791800065E-01  3.2106742184E-01
                       4.0331901347E-01  9.2627409923E-01  4.8754637944E-01
                       3.3964483306E-01  7.4748605422E-01  2.9051741449E-01
                       5.1248435638E-01  8.7128405973E-01  1.0756145486E-01
                       7.0022780099E-02 -5.1213064252E-03  6.4529889033E-01
                       2.4082098428E-01  9.1924185238E-01  8.3508586529E-01
                       1.7151554371E-01  8.3276416442E-01  4.9911183036E-01
                       6.6466489382E-01  5.0096698994E-01  2.0874718066E-01
                       4.8524606554E-01  6.1479828302E-01  3.7254959880E-01
                       5.8435315480E-01  6.7183073684E-01  1.0187916039E+00
                       8.3782098207E-01  5.8570888925E-01 -5.0902010953E-03
                       8.8570409045E-01  7.7787065663E-01  9.4240112591E-01
                       7.3061712435E-01  6.9536217489E-01  7.3687291855E-01
                       6.0414300426E-01  3.1486321181E-02  7.7101924453E-01
                       7.4052770796E-01  8.8954564826E-01  9.0887699701E-01
                       6.9891044824E-01  8.9581972639E-01  4.8323593052E-01
                       2.2040346663E-02  7.9233212807E-01  2.6804720593E-01
                       9.1300732601E-01  8.5910809219E-01  5.6429414193E-01
                       8.2008926820E-01  7.4064536687E-01  2.9456436345E-01
                       6.2192342684E-02 -4.1719494347E-02  1.3156302783E-02
                       2.2614088321E-01  2.4729450997E-01  7.9345620574E-01
                       1.0123425715E+00  2.5454485283E-01  3.2330870447E-01
                       7.7275020431E-01  5.0166618821E-01  6.3124202379E-01
                       2.0798719813E-01  7.1435281778E-01  8.8114995900E-01
                       5.2463328755E-01  7.9354533188E-01  4.1112667177E-01
                       4.8345973807E-01  4.9862454140E-01  1.1283559197E-01
                       7.9577315190E-01  1.0204743195E+00  6.7246606333E-01
 
kptopt   1
            ngfft         144     144      72
ngkpt    1 1 2
nshiftk 1
shiftk 
0.5 0.5 0.5
ecut       30
ecutsm   0.5
pawecutdg  30
pawxcdev   0
ixc      -116133
nband    420
diemac   4

# First SCF run       
#irdwfk1   1
nstep1    100
iscf1     7
tolvrs1   1.0E-20

#Refinement using tolwfr
nstep2    250
getwfk2   -1
iscf2     7
tolwfr2   1.0E-20

# Printing flags
prtden    1
prteig    0
prtwf     1
prtposcar 0
prtcif    1
