#input for non-centrosymmetric orthorhombic HfO2

ndtset    1
autoparal 1

#Crystal Def.

nsym     1
ntypat   3
natom    26
typat    4*1 4*2 18*3
znucl    57 42 8

acell 3*1

rprim
  1.33132925305719E+01 -1.50944436376328E-01  5.05431982952166E-02
 -1.51336849167152E-01  1.35767495610386E+01  6.85036951441403E-01
  4.34214546700006E-02  7.11865938454283E-01  1.35716245519219E+01

xred
  8.65517224656523E-01  8.68791712696152E-01  8.17605836588003E-01
  3.72218489804432E-01  6.25939285870338E-01  1.80080593629487E-01
  1.24499607211930E-01  3.34221115373929E-01  6.04800006237583E-01
  6.23528109113534E-01  1.64244327290445E-01  3.94638183215974E-01
  1.62063133106385E-01  1.20307860856891E-01  1.88827711236732E-01
  6.61096812606010E-01  3.80928416534129E-01  8.09784777385199E-01
  8.32753322439857E-01  7.05295756926912E-01  2.98631169479597E-01
  3.29242445430480E-01  7.95329081202152E-01  7.02396769757516E-01
  3.19751618349265E-01  3.05827844030408E-01  3.06990748186461E-01
  8.18635548640982E-01  1.93537580988757E-01  6.98595812892893E-01
  6.83124137881208E-01  7.84626463124692E-01  1.01270742846382E-01
  1.84612153594205E-01  7.11594330466731E-01  9.03770345432194E-01
  9.73563947528329E-01  1.98112996844097E-01  3.38715063880292E-01
  4.74081357989759E-01  2.98509985999564E-01  6.60783087716804E-01
  4.42561454261779E-02  5.75046114917031E-01  3.03622930862368E-01
  5.41971470234356E-01  9.31627335424565E-01  6.99814510711312E-01
  3.65605359147236E-01  9.64777975162802E-01  2.48100582770753E-01
  1.66401314194270E-01 -1.96396726185243E-02  6.33926672519351E-01
  8.70463851142268E-01  5.38061698422138E-01  7.46059738495557E-01
  6.67620497693320E-01  5.14073689261213E-01  3.65591791060295E-01
  1.67105489434082E-01  2.33915342477685E-01  9.61228463962580E-01
  8.09187909237111E-01  8.58591527342367E-01  4.73491246367775E-01
  3.13251553148154E-01  6.40918199386248E-01  5.27084678926726E-01
  6.59998535167821E-01  2.73601129545471E-01  4.01022428129689E-02
  7.03280729177326E-03 -8.48398202010802E-02  1.41313842767450E-01
  5.12417159561294E-01  5.86599722677861E-01  8.52772450266525E-01

kptopt   1
ngkpt    2 2 2
nshiftk 1
shiftk 
0.5 0.5 0.5

ecut       30
pawecutdg  30
pawxcdev   0
ixc      -116133
nband    104
diemac   4

ecutsm  0.5
nstep    100
iscf     7
tolvrs   1.0E-20
ionmov   2
optcell  2
dilatmx  1.04
tolmxf   1e-8
ntime    150
strtarget 3*0.0 2*0.0 -3.39893e-05



# Printing flags
prtden    1
prteig    0
prtwf     1
prtposcar 0
prtcif    1
