#input for non-centrosymmetric orthorhombic HfO2

ndtset    2

autoparal 1

#Crystal Def.
ntypat   3
natom    26
typat    4*1 4*2 18*3
znucl    57 42 8
acell 3*1

rprim
  1.33132932501649E+01 -1.50960797616728E-01  5.05708848872706E-02
 -1.51352447740729E-01  1.35767276265748E+01  6.85058368013867E-01
  4.34489339536205E-02  7.11885244658614E-01  1.35716485055163E+01

             xred      8.6551363277E-01  8.6878782274E-01  8.1760427622E-01
                       3.7221929351E-01  6.2593976300E-01  1.8008131593E-01
                       1.2449937504E-01  3.3422026418E-01  6.0480070538E-01
                       6.2352696537E-01  1.6424379447E-01  3.9463752721E-01
                       1.6206230235E-01  1.2030984267E-01  1.8882733700E-01
                       6.6109825063E-01  3.8092729944E-01  8.0978282359E-01
                       8.3275430721E-01  7.0529673003E-01  2.9863150042E-01
                       3.2924175925E-01  7.9532682089E-01  7.0239877398E-01
                       3.1975126338E-01  3.0582805971E-01  3.0699274570E-01
                       8.1863552267E-01  1.9353576076E-01  6.9859456158E-01
                       6.8312549041E-01  7.8462643803E-01  1.0127101055E-01
                       1.8461095746E-01  7.1158821002E-01  9.0377127074E-01
                       9.7356309850E-01  1.9811310033E-01  3.3871505160E-01
                       4.7408119705E-01  2.9851033923E-01  6.6078398014E-01
                       4.4257593804E-02  5.7504794207E-01  3.0362583051E-01
                       5.4196865205E-01  9.3162948733E-01  6.9981599771E-01
                       3.6560364387E-01  9.6477869590E-01  2.4809963406E-01
                       1.6639980576E-01 -1.9642293192E-02  6.3393069424E-01
                       8.7046568615E-01  5.3806084641E-01  7.4605220066E-01
                       6.6762144680E-01  5.1407335154E-01  3.6559145994E-01
                       1.6710572348E-01  2.3392230659E-01  9.6123039190E-01
                       8.0918501103E-01  8.5859366349E-01  4.7348976185E-01
                       3.1325372089E-01  6.4091771179E-01  5.2708553579E-01
                       6.6000149557E-01  2.7360091647E-01  4.0100590224E-02
                       7.0325131630E-03 -8.4837675576E-02  1.4131198921E-01
                       5.1242129187E-01  5.8660080170E-01  8.5277303388E-01
 
kptopt   1
            ngfft          72      75      75
ngkpt    2 2 2
nshiftk 1
shiftk 
0.5 0.5 0.5
ecut       30
ecutsm  0.5
pawecutdg  30
pawxcdev   0
ixc      -116133
nband    104
diemac   4

# First SCF run       
#irdwfk1   1
nstep1    100
iscf1     7
tolvrs1   1.0E-20

#Refinement using tolwfr
nstep2    250
getwfk2   -1
iscf2     7
tolwfr2   1.0E-20

# Printing flags
prtden    1
prteig    0
prtwf     1
prtposcar 0
prtcif    1
