#input for non-centrosymmetric orthorhombic HfO2

ndtset    1
autoparal 1

#Crystal Def.

nsym      1
ntypat   3
natom    26
typat    4*1 4*2 18*3
znucl    57 42 8

acell 3*1

rprim
  1.37017885875804E+01  8.59719279115557E-03 -7.16022072505310E-01
  8.50368884463317E-03  1.32790539915643E+01  1.38764963352789E-03
 -7.22175715333158E-01  9.67589543567493E-04  1.35390041647517E+01

             xred   
  8.95645734713633E-01  8.76128422821897E-01  8.34016354095818E-01
  3.18575542528562E-01  6.31329035602433E-01  1.29759729138922E-01
  1.04250815943216E-01  3.76172501420713E-01  6.65710528699052E-01
  6.82094657357512E-01  1.32642243919801E-01  3.68743030167073E-01
  2.03494537493312E-01  1.68688214468828E-01  2.06494468648432E-01
  6.89592936353601E-01  3.38365802337257E-01  8.79030651240642E-01
  7.96753092387984E-01  6.69054214129724E-01  2.93726624599885E-01
  3.10339101366984E-01  8.38385445682029E-01  6.20735432677741E-01
  4.01769400186982E-01  3.16213479750983E-01  2.87401803333543E-01
  8.03912165434424E-01  1.80523824329738E-01  6.92351361442785E-01
  5.98100279182350E-01  8.16088348961090E-01  2.12076127665735E-01
  1.94853667637334E-01  6.80380285102759E-01  8.06921397716847E-01
  1.02848172306123E+00  1.89711248415167E-01  3.58375542512558E-01
  4.62661739589339E-01  3.36755040688655E-01  7.68247406829394E-01
 -2.86414222273220E-02  6.88853622601143E-01  1.41249300683020E-01
  5.36721486531387E-01  8.34517378924438E-01  7.32612869956009E-01
  1.96604128998370E-01  9.56198210539908E-01  7.23301614363361E-02
  1.61237811468991E-01  2.65036731837052E-02  7.00027796550699E-01
  8.38775080120885E-01  5.26266986450447E-01  8.00803310126905E-01
  8.03516729285355E-01  4.57329951143607E-01  4.29311145120437E-01
  1.36957917928843E-01  3.33384234521988E-01  1.01733489816469E+00
  8.63347972242441E-01  8.34330845364558E-01  4.82306739047369E-01
  2.48042317501082E-01  6.32001849742993E-01  4.63614594766213E-01
  7.51932306745619E-01  1.30876687872925E-01  3.53112195883880E-02
  6.44406791975968E-01  4.88859698831450E-01  1.08632528086500E+00
  3.56573486205682E-01  9.90438753138913E-01  4.15182224932720E-01

kptopt   1
            ngfft          72      75      75

ngkpt    2 2 2
nshiftk 1
shiftk 
0.5 0.5 0.5

ecut       30
pawecutdg  30
pawxcdev   0
ixc      -116133
nband    104
diemac   4

ecutsm  0.5
nstep    100
iscf     7
tolvrs   1.0E-20
ionmov   2
optcell  2
dilatmx  1.04
tolmxf   1e-8
ntime    150
strtarget 3.39893e-05 5*0.0 



# Printing flags
prtden    1
prteig    0
prtwf     1
prtposcar 0
prtcif    1
