#input for KTaO3

ndtset    3

autoparal 1

#Crystal Def.
ntypat   3
natom    26
typat    4*1 4*2 18*3
znucl    57 42 8
acell 3*1


rprim
  1.35705057612332E+01  0.00000000000000E+00 -7.04942327097522E-01
  0.00000000000000E+00  1.33112292327171E+01  0.00000000000000E+00
 -7.02411022252940E-01  0.00000000000000E+00  1.35756083998879E+01

             xred      8.9517375790E-01  8.7586077305E-01  8.3500922843E-01
                       3.1865021796E-01  6.3037188235E-01  1.2833864393E-01
                       1.0482624210E-01  3.7586077305E-01  6.6499077157E-01
                       6.8134978204E-01  1.3037188235E-01  3.7166135607E-01
                       2.0225889264E-01  1.6878166550E-01  2.0525788334E-01
                       6.8948160615E-01  3.3851045906E-01  8.8026529991E-01
                       7.9774110736E-01  6.6878166550E-01  2.9474211666E-01
                       3.1051839385E-01  8.3851045906E-01  6.1973470009E-01
                       4.0170408119E-01  3.1638370551E-01  2.8618049410E-01
                       8.0411266291E-01  1.8073657293E-01  6.9385366656E-01
                       5.9829591881E-01  8.1638370551E-01  2.1381950590E-01
                       1.9588733709E-01  6.8073657293E-01  8.0614633344E-01
                       1.0270018430E+00  1.8881787691E-01  3.5891976038E-01
                       4.6034604132E-01  3.3651549793E-01  7.6999407563E-01
                      -2.7001842962E-02  6.8881787691E-01  1.4108023962E-01
                       5.3965395868E-01  8.3651549793E-01  7.3000592437E-01
                       1.9834197902E-01  9.5675871675E-01  7.1772506218E-02
                       1.6097017658E-01  2.6151464278E-02  7.0004874590E-01
                       8.3902982342E-01  5.2615146428E-01  7.9995125410E-01
                       8.0165802098E-01  4.5675871675E-01  4.2822749378E-01
                       1.3408722935E-01  3.3264995257E-01  1.0169688639E+00
                       8.6591277065E-01  8.3264995257E-01  4.8303113607E-01
                       2.4915981148E-01  6.3227024487E-01  4.6326306088E-01
                       7.5084018852E-01  1.3227024487E-01  3.6736939116E-02
                       6.4428693217E-01  4.9119118827E-01  1.0851389259E+00
                       3.5571306783E-01  9.9119118827E-01  4.1486107407E-01
 
nshiftk 1
shiftk 
0.5 0.5 0.5
#chksymbreak 0
kptopt   1
ngkpt    2 2 2

ecut 30
ixc      -116133
nband    104
nstep    150
diemac   4


# Data set 1 - Refinement of already computed GS WFs       
irdwfk1   0
irdden1   0
iscf1     7
tolvrs1   1.0E-20
nstep1    100

# Data Set 2: Response Function calculation : d/dk 
rfelfd2    2 
rfdir2     1    1    1 

nqpt2      1 
qpt2       0.0  0.0  0.0  

getwfk2   -1 
getden2   -1 

kptopt2    2 

iscf2     -3 

tolwfr2    1.0d-22 

# Data set 3 : Response Function calculation - electric field perturbation, phonons, and strain

rfphon3   1            # Will consider phonon-type perturbation 
rfelfd3   3            # Electric Field
rfstrs3   0            # Strains

rfdir3    1   1   1    # Along all reduced coordinate axis 
rfatpol3  1   26        # All the atoms will be displaced 

nqpt3     1            # One wavevector is to be considered 
qpt3      0.0 0.0 0.0  # This wavevector is q=0 (Gamma) 

kptopt3   2            # Automatic generation of k points, taking 
                       # into account the time-reversal symmetry only 

getwfk3   1            # Read the ground-state wavefunctions 
getddk3   2
                                              
tolvrs3   1.0d-20      # SCF stopping criterion 
                       



# Printing flags
prtden    1
prteig    0
prtwf     1
prtposcar 0
prtcif    0

ecutsm   0.5
            ngfft          72      75      75
pawecutdg  30
pawxcdev   0
