#input for non-centrosymmetric orthorhombic HfO2

ndtset    2

autoparal 1

#Crystal Def.
ntypat   3
natom    104
typat    16*1 16*2 72*3
znucl    57 42 8
acell 3*1

rprim
  2.70121024963910E+01 -2.57205266538611E-01  2.53781043061688E-01
 -2.55550375579864E-01  2.67931022355602E+01  2.86734060150819E-01
  1.28163861860161E-01  1.44778056651690E-01  1.35395789807855E+01

kptopt   1
            ngfft         144     144      72
ngkpt    1 1 2
nshiftk 1
shiftk 
0.5 0.5 0.5
ecut       30
ecutsm   0.5
pawecutdg  30
pawxcdev   0
ixc      -116133
nband    420
diemac   4

# First SCF run       
#irdwfk1   1
nstep     100
iscf      7
tolvrs    1.0E-20
ionmov    2
optcell   2
dilatmx   1.04
tolmxf    1e-8
ntime     250
strtarget 4*0.0 1.69946e-05 0.0

# Printing flags
prtden    1
prteig    0
prtwf     1
prtposcar 0
prtcif    0




xred  4.40224883551553E-01  4.31803917522537E-01  8.45761686946377E-01
  1.57821844397843E-01  3.17361783439169E-01  1.71798036281094E-01
  7.48329072154407E-02  1.70482907604369E-01  6.29228238257053E-01
  3.19476824906129E-01  8.38410780618415E-02  3.79461505490494E-01
  9.25038992148989E-01  4.12296778177847E-01  8.51470121089630E-01
  6.68463026988126E-01  3.37677439045228E-01  1.14758544571952E-01
  5.62165338429635E-01  1.88685666296709E-01  6.60872207004704E-01
  8.33368691068703E-01  4.47025112483785E-02  3.71276384675365E-01
  4.23808308697344E-01  9.35119877935350E-01  8.39335681703130E-01
  1.63349495957346E-01  8.37117330286938E-01  1.08777386252604E-01
  8.18452672597740E-02  6.78225408205702E-01  6.16645325601126E-01
  3.19029222775706E-01  5.59110944802430E-01  3.70536590114488E-01
  9.10138176215568E-01  9.26748836263476E-01  8.63221084972735E-01
  6.40661613773777E-01  8.17252671031579E-01  1.41913538448797E-01
  5.45655496151926E-01  6.81388424410834E-01  6.46990771828761E-01
  8.11704132379820E-01  5.43281453856935E-01  3.19292066415699E-01
  9.66470700166556E-02  6.72675142752873E-02  1.69599035250151E-01
  3.35621999555232E-01  1.66224556351402E-01  8.45014819541081E-01
  4.29099410069008E-01  3.49172823156797E-01  3.16327485615636E-01
  1.64363861515653E-01  4.43401965899827E-01  6.94750003042418E-01
  6.01479920077154E-01  9.97010596490106E-02  2.09063043857955E-01
  8.36854593163801E-01  1.44606478673660E-01  8.02793296597647E-01
  9.24006708242648E-01  3.25839270489832E-01  3.30180472076982E-01
  6.78988219204835E-01  4.42825733961087E-01  6.78908207212013E-01
  8.46040545180528E-02  5.89642788037864E-01  1.46630325417109E-01
  3.12639146389074E-01  6.69253508315508E-01  8.07136782953706E-01
  4.11087642425113E-01  8.31942188575729E-01  3.10564392221142E-01
  1.60848334363545E-01  8.97417446357084E-01  6.49318827906410E-01
  5.81311849511340E-01  5.69360137610219E-01  1.95817491182638E-01
  8.31741264988800E-01  6.62214273530601E-01  7.94643768931586E-01
  8.93775036142448E-01  8.03347723316216E-01  3.47020675837608E-01
  6.68750164407124E-01  9.29902153351845E-01  7.04079065431453E-01
  1.05888641435662E-01  3.37626987280779E-01  7.76109775443874E-01
  1.64402038873823E-01  1.59359780432694E-01  3.17409902232505E-01
  3.53599902766137E-01  4.16864819131274E-01  1.56162737162094E-01
  4.13763732449025E-01  9.22354027685239E-02  6.70813151749032E-01
  5.91843033849966E-01  3.48763000598494E-01  7.88684495209530E-01
  6.82631159328314E-01  1.54092077082640E-01  3.62422017137980E-01
  8.34971697167909E-01  3.86408118361006E-01  1.71578524122455E-01
  9.31299705815176E-01  7.45559151869762E-02  6.71604056822173E-01
  5.93791770571485E-02  8.43021476742027E-01  7.62055135012603E-01
  1.62726149927830E-01  6.44536816500976E-01  3.06309145570741E-01
  3.27198875650475E-01  8.49408686244166E-01  1.21062954978254E-01
  3.98523118741420E-01  5.85883919213139E-01  6.96902891951811E-01
  5.79084367313298E-01  8.41031291205764E-01  7.81562803760265E-01
  6.53329370594999E-01  6.30515501551662E-01  3.59393144561833E-01
  8.73217948076962E-01  9.03203457377337E-01  1.95296891311806E-01
  9.00868382288205E-01  6.70716564613309E-01  5.73025598408582E-01
  9.04948844653298E-02  1.44499865409881E-01  9.72943345790375E-01
  9.95361898189150E-01  7.83791335991691E-02  3.17923351063507E-01
  2.01577903531964E-01  9.92920620537103E-01  2.10791193225691E-01
  4.06711450678926E-01  4.13427078621139E-01  5.17655727246639E-01
  3.53630521222510E-01  2.49054928757007E-01  3.34854752030018E-01
  5.38300713446734E-01  2.85207268865385E-01  3.49925929208572E-01
  3.62904259579876E-01  7.67554624221158E-02  2.10788763788760E-02
  4.25127803885382E-01  2.60166199308164E-01  8.05776523397764E-01
  2.45035789611925E-01  1.49730945875549E-01  6.69702164097045E-01
  2.69997685280269E-01  4.32258675349880E-01  8.14863272495869E-01
  1.93483076341985E-01  4.27715849876523E-01  4.53418214128215E-01
  5.69677932990942E-02  5.16689163684234E-01  7.11976501668755E-01
 -1.38282286445103E-03  3.39907075503686E-01  1.07779982242845E-01
  8.99236250489789E-01  4.12441756396209E-01  5.04374932052818E-01
  8.63268032993902E-01  2.18519329001999E-01  3.80754022101445E-01
  4.96498939968043E-01  8.14182408002167E-02  3.35697670060877E-01
  5.85857690216665E-01  1.77969455466993E-01  1.01513655970679E+00
  6.57017650136848E-01  9.94884021320967E-01  1.47270739795334E-01
  7.61479738917827E-01  3.85084834943206E-01  8.34725405903496E-01
  6.85310223886219E-01  4.08779346006282E-01  4.42624157565719E-01
  5.82424258122586E-01  5.23023232508031E-01  7.26526443159469E-01
  8.41032728184223E-01  8.99679182486446E-02  2.69757330597144E-02
  9.16681047344493E-01  2.43631321693531E-01  7.93043430079183E-01
  7.28169743152289E-01  1.99080071693784E-01  7.74355748654120E-01
  3.08629448413261E-01  6.25699016235238E-01  3.66186992544527E-02
  4.01778416539602E-01  7.60795657225665E-01  7.85149078465779E-01
  2.24039538062164E-01  5.92342594435261E-01  6.52326001459521E-01
  1.35646475331215E-01  4.86522103071716E-01  6.11231649400814E-02
  6.55413368216452E-02  6.72011618232991E-01  9.65723229279643E-01
  9.81653721445056E-01  5.57730082260727E-01  2.71227460241833E-01
  3.82157916319442E-01  9.19848772553212E-01  4.75408205027448E-01
  3.56209092699848E-01  7.24162744591795E-01  3.95659729257148E-01
  4.95832501101944E-01  8.86262285715079E-01  1.18752913220601E-01
  1.21291355264241E-01  5.40525515325821E-03  5.65379465909535E-01
  2.50323223003715E-01  9.31641329093875E-01  8.05352681192433E-01
  1.83064932812133E-01  8.27152238068207E-01  4.51944467943602E-01
  6.85773426497888E-01  5.07338156080379E-01  1.04999494043351E-01
  4.81913130357894E-01  5.72031308364796E-01  3.55433215980150E-01
  5.54910549022776E-01  6.57110566861971E-01  1.02617743809370E+00
  8.64061409266088E-01  5.68950215862347E-01 -4.57355119503743E-02
  8.86734094903940E-01  7.58408222605658E-01  9.03270704563654E-01
  7.13713332135780E-01  6.96957490742004E-01  7.98104247768605E-01
  5.84201775930937E-01  2.21917792917096E-02  7.32677342135633E-01
  7.43720327949981E-01  8.87428256825037E-01  8.91979171022375E-01
  6.92507007558001E-01  8.98437766952034E-01  4.69474446126865E-01
  1.14037528904817E-02  7.68787268982084E-01  3.08610606392704E-01
  8.81638206151427E-01  8.67731176746876E-01  5.55555702202283E-01
  8.03948226774298E-01  7.25305494470314E-01  2.73005693116603E-01
  4.97313261074429E-02 -4.28385232621223E-02  5.51447870624409E-02
  2.64588207178308E-01  2.37268480533305E-01  9.90356777231162E-01
  1.04047226673465E+00  2.95821632789418E-01  4.27428139745677E-01
  7.66255959924573E-01  5.41770387039844E-01  6.45333492782344E-01
  2.13467648283168E-01  7.52071750560536E-01  7.98289961571119E-01
  5.28717581918600E-01  7.84894763566202E-01  3.88455425710844E-01
  5.27783394486712E-01  4.33748409749929E-01  1.44239546476838E-01
  7.69172360113207E-01  1.03185943880400E+00  6.78779460403732E-01
