#input for non-centrosymmetric orthorhombic HfO2

ndtset    1
autoparal 1

#Crystal Def.

nsym      1
ntypat   3
natom    26
typat    4*1 4*2 18*3
znucl    57 42 8

acell 3*1

rprim
  1.34535801613467E+01  1.22374250717654E-02  6.95218450028615E-01
  1.19131221842728E-02  1.33400108043022E+01 -1.35490064869190E-03
  6.80628436152429E-01 -1.30298955721272E-03  1.36083690590494E+01

             xred     
  8.18554134674793E-01  8.70045032139965E-01  8.72439916139532E-01
  3.94959263468038E-01  6.24150585310585E-01  1.63726510677404E-01
  1.80388980510058E-01  3.71550435197935E-01  6.25149187490383E-01
  6.05333172521134E-01  1.24342042104039E-01  3.35800402627958E-01
  1.89368974046396E-01  1.61306699177706E-01  1.18547579966969E-01
  7.01233466579730E-01  3.30823247076205E-01  7.96011245298081E-01
  8.10311518703191E-01  6.61531579322101E-01  3.81501139883843E-01
  2.98925050333966E-01  8.31407146513657E-01  7.03350879619715E-01
  3.05115889396137E-01  3.19082980352671E-01  3.04595685912354E-01
  9.01683392574381E-01  1.83374044444381E-01  7.14150305198818E-01
  6.97207842333468E-01  8.18831437017170E-01  1.94553587047197E-01
  9.87052191274043E-02  6.83834531222795E-01  7.83569525155599E-01
  9.58879771163115E-01  1.64037446706229E-01  2.29780053636363E-01
  5.25333220696137E-01  3.11656486194924E-01  6.41339859279904E-01
  4.23166334770007E-02  6.61855535514144E-01  2.73790543129028E-01
  4.73975056105930E-01  8.11113500145859E-01  8.59033234647779E-01
  3.39482677744668E-01  9.73932952894269E-01  2.00521643105218E-01
  2.99671555296212E-01  4.39118632083805E-02  5.72190415340375E-01
  6.99481266173430E-01  5.42447784890345E-01  9.29026130509753E-01
  6.61400816964383E-01  4.73930813491777E-01  2.99948325992685E-01
  2.49216231611902E-01  3.66946187118625E-01  9.62328539960062E-01
  7.48850649368622E-01  8.67617072898324E-01  5.37644016173780E-01
  3.68886529473496E-01  6.68908173311023E-01  5.15464128937292E-01
  6.32496328461426E-01  1.67388533344275E-01 -1.65090347831884E-02
  1.43957629808327E-01  7.27889081722897E-03 -8.42136418791940E-02
  8.54264729399489E-01  5.08694999611397E-01  5.86259820933332E-01

kptopt   1
ngkpt    2 2 2
nshiftk 1
shiftk 
0.5 0.5 0.5

ecut       30
pawecutdg  30
pawxcdev   0
ixc      -116133
nband    104
diemac   4

ecutsm  0.5
nstep    100
iscf     7
tolvrs   1.0E-20
ionmov   2
optcell  2
dilatmx  1.04
tolmxf   1e-8
ntime    150
strtarget 1*-3.39893e-05 2*0.0 3*0.0



# Printing flags
prtden    1
prteig    0
prtwf     1
prtposcar 0
prtcif    1
