#input for KTaO3

ndtset    3

autoparal 1

#Crystal Def.
ntypat   3
natom    26
typat    4*1 4*2 18*3
znucl    57 42 8
acell 3*1


rprim
  1.30991354143570E+01 -6.32631471361964E-02  1.15825514451586E-01
 -6.49863651235576E-02  1.36904878677267E+01 -2.16160140133232E-01
  1.38504461514311E-01 -2.17389990087561E-01  1.37053096680521E+01

             xred      8.7840870594E-01  8.4671819045E-01  8.6998106697E-01
                       3.4347802693E-01  6.1661082496E-01  1.9663931071E-01
                       1.4022275612E-01  3.5219636498E-01  6.3991519095E-01
                       6.3971032215E-01  1.1622099993E-01  3.1103295993E-01
                       1.3494296940E-01  1.7839568845E-01  1.8668594341E-01
                       6.6232198179E-01  3.2807305476E-01  8.0890104646E-01
                       8.5114438102E-01  6.8068864499E-01  3.2689492431E-01
                       3.6502363267E-01  8.5393541860E-01  7.0528652598E-01
                       2.9644166004E-01  6.4126386362E-01  8.0725815763E-01
                       3.1848329334E-01  3.1368473694E-01  3.3727207376E-01
                       6.6404532113E-01  7.8850220858E-01  1.6086544308E-01
                       8.5504334189E-01  1.7880792468E-01  7.5877133310E-01
                       1.6457110605E-02  6.8868739787E-01  1.1641161616E-01
                       2.8759800665E-01  9.8296987999E-01  1.5585918518E-01
                       8.1041149909E-01  8.6843895106E-01  4.9017957346E-01
                       7.7335585067E-01  5.4341817498E-01  7.6280458797E-01
                       5.5705460541E-01  9.5159576480E-01  8.2999348975E-01
                       9.7221540971E-01  2.1478394056E-01  3.9707850275E-01
                       6.9843644219E-01  4.8821713665E-01  3.6319214785E-01
                       1.6647802415E-01  3.4070933831E-01  1.0070838353E+00
                       4.8080731491E-01  2.7176395158E-01  6.4652016069E-01
                       1.6724534241E-01  4.3929976514E-03  7.3051897937E-01
                       1.0803437047E+00  6.0845089812E-01  4.4571665927E-01
                       5.7532259758E-01  3.2998614772E-01  3.8725705618E-02
                       4.2651797411E-01  8.3498074591E-01  4.6916348801E-01
                      -9.6672659928E-02  7.9367127344E-02  1.0956510520E+00
 
nshiftk 1
shiftk 
0.5 0.5 0.5
#chksymbreak 0
kptopt   1
ngkpt    2 2 2

ecut 30
ixc      -116133
nband    104
nstep    150
diemac   4


# Data set 1 - Refinement of already computed GS WFs       
irdwfk1   0
irdden1   0
iscf1     7
tolvrs1   1.0E-20
nstep1    100

# Data Set 2: Response Function calculation : d/dk 
rfelfd2    2 
rfdir2     1    1    1 

nqpt2      1 
qpt2       0.0  0.0  0.0  

getwfk2   -1 
getden2   -1 

kptopt2    2 

iscf2     -3 

tolwfr2    1.0d-22 

# Data set 3 : Response Function calculation - electric field perturbation, phonons, and strain

rfphon3   1            # Will consider phonon-type perturbation 
rfelfd3   3            # Electric Field
rfstrs3   3            # Strains

rfdir3    1   1   1    # Along all reduced coordinate axis 
rfatpol3  1   26        # All the atoms will be displaced 

nqpt3     1            # One wavevector is to be considered 
qpt3      0.0 0.0 0.0  # This wavevector is q=0 (Gamma) 

kptopt3   2            # Automatic generation of k points, taking 
                       # into account the time-reversal symmetry only 

getwfk3   1            # Read the ground-state wavefunctions 
getddk3   2
                                              
tolvrs3   1.0d-20      # SCF stopping criterion 
                       



# Printing flags
prtden    1
prteig    0
prtwf     1
prtposcar 0
prtcif    0

ecutsm  0.5
            ngfft          72      75      75
pawecutdg  30
pawxcdev   0
