#input for KTaO3

ndtset    3

autoparal 1

#Crystal Def.
ntypat   3
natom    26
typat    4*1 4*2 18*3
znucl    57 42 8
acell 3*1


rprim
  1.35927989672990E+01 -6.86826955364544E-01  3.18579457164405E-03
 -7.15292760929660E-01  1.35142507866027E+01  7.49194924690009E-03
  2.36858992996979E-03  7.64772981473534E-03  1.33250411247032E+01

             xred      8.3512180206E-01  8.9511335323E-01  8.7591086121E-01
                       3.7181029770E-01  6.8179166283E-01  1.3038486642E-01
                       1.2725806057E-01  3.1875077858E-01  6.2931916124E-01
                       6.6470741398E-01  1.0483367550E-01  3.7591288069E-01
                       2.0500526045E-01  2.0200521338E-01  1.6849768224E-01
                       6.1932700677E-01  3.1085015434E-01  8.3840213276E-01
                       8.8070146401E-01  6.8920864892E-01  3.3852060092E-01
                       2.9500569999E-01  7.9797482032E-01  6.6916948693E-01
                       2.8550873937E-01  4.0191393473E-01  3.1611712966E-01
                       8.0554331316E-01  1.9551992344E-01  6.8088525892E-01
                       6.9403954187E-01  8.0359528085E-01  1.8105548294E-01
                       2.1376900311E-01  5.9784634423E-01  8.1662970240E-01
                       1.0166684661E+00  1.3333110740E-01  3.3180024596E-01
                       4.6287715661E-01  2.4977002689E-01  6.3263487525E-01
                       3.6878424057E-02  7.5122015114E-01  1.3231101892E-01
                       4.8262037795E-01  8.6685469289E-01  8.3303256335E-01
                       3.5928807163E-01  1.0268015868E+00  1.8945025342E-01
                       1.4063481204E-01 -2.6768985888E-02  6.8820025702E-01
                       7.2972688139E-01  5.4080802031E-01  8.3600125658E-01
                       7.7149534052E-01  4.5874438014E-01  3.3698546666E-01
                       7.2482161350E-02  1.9835426855E-01  9.5623020027E-01
                       7.9988625960E-01  8.3850661261E-01  5.2609501478E-01
                       4.2855550066E-01  8.0119505458E-01  4.5751068914E-01
                       7.0024191319E-01  1.6121935780E-01  2.6067214197E-02
                       4.1535774451E-01  3.5594058781E-01  9.9177493262E-01
                       1.0854892872E+00  6.4461934861E-01  4.9110076549E-01
 
nshiftk 1
shiftk 
0.5 0.5 0.5
#chksymbreak 0
kptopt   1
ngkpt    2 2 2

ecut 30
ixc      -116133
nband    104
nstep    150
diemac   4


# Data set 1 - Refinement of already computed GS WFs       
irdwfk1   0
irdden1   0
iscf1     7
tolvrs1   1.0E-20
nstep1    100

# Data Set 2: Response Function calculation : d/dk 
rfelfd2    2 
rfdir2     1    1    1 

nqpt2      1 
qpt2       0.0  0.0  0.0  

getwfk2   -1 
getden2   -1 

kptopt2    2 

iscf2     -3 

tolwfr2    1.0d-22 

# Data set 3 : Response Function calculation - electric field perturbation, phonons, and strain

rfphon3   1            # Will consider phonon-type perturbation 
rfelfd3   3            # Electric Field
rfstrs3   3            # Strains

rfdir3    1   1   1    # Along all reduced coordinate axis 
rfatpol3  1   26        # All the atoms will be displaced 

nqpt3     1            # One wavevector is to be considered 
qpt3      0.0 0.0 0.0  # This wavevector is q=0 (Gamma) 

kptopt3   2            # Automatic generation of k points, taking 
                       # into account the time-reversal symmetry only 

getwfk3   1            # Read the ground-state wavefunctions 
getddk3   2
                                              
tolvrs3   1.0d-20      # SCF stopping criterion 
                       



# Printing flags
prtden    1
prteig    0
prtwf     1
prtposcar 0
prtcif    0

ecutsm  0.5
            ngfft          72      75      75
pawecutdg  30
pawxcdev   0
