#input for non-centrosymmetric orthorhombic HfO2

ndtset    2

autoparal 1

#Crystal Def.
ntypat   3
natom    104
typat    16*1 16*2 72*3
znucl    57 42 8
acell 3*1

rprim
  2.69790102772438E+01 -2.34201760780392E-01 -7.02776356969145E-01
 -2.38627252894067E-01  2.70469014607448E+01  2.54394173004860E-01
 -3.52415499839722E-01  1.24808223064600E-01  1.34882232559136E+01

             xred      4.3457389915E-01  4.4006620513E-01  8.4067508348E-01
                       1.6322012366E-01  3.1125648985E-01  1.5769586277E-01
                       6.7906944132E-02  1.7128533295E-01  6.1983849076E-01
                       3.2600928862E-01  8.9628946474E-02  3.4119148486E-01
                       9.0507314119E-01  4.1634054430E-01  8.6737802859E-01
                       6.5974017868E-01  3.4490553964E-01  1.2916830599E-01
                       5.4741754645E-01  1.9065910927E-01  6.5810987917E-01
                       8.2944062404E-01  5.4075010170E-02  3.5773923286E-01
                       4.2332872548E-01  9.3412316101E-01  8.2713621952E-01
                       1.6982538119E-01  8.3612701434E-01  1.1539113436E-01
                       8.2924233783E-02  6.7191296746E-01  6.0341495326E-01
                       3.2271737252E-01  5.6692528127E-01  3.6134679816E-01
                       9.0605156176E-01  9.2984704344E-01  8.5812710337E-01
                       6.4255053666E-01  8.2465263276E-01  1.4423295907E-01
                       5.4739032239E-01  6.8204914357E-01  6.4229006557E-01
                       8.1614127611E-01  5.4687311257E-01  3.4895119392E-01
                       9.1447021337E-02  6.4648908840E-02  1.7217152754E-01
                       3.3512415304E-01  1.6065504509E-01  8.5583014176E-01
                       4.2111916634E-01  3.4604324594E-01  3.1592879059E-01
                       1.5939442044E-01  4.1039395241E-01  6.4660652933E-01
                       6.0325577683E-01  1.0953271276E-01  2.0550780023E-01
                       8.3149443092E-01  1.4666400614E-01  7.9179085929E-01
                       9.3378700325E-01  3.3537407782E-01  3.4055090669E-01
                       6.7327467544E-01  4.3878558123E-01  6.9137404257E-01
                       7.9443000337E-02  5.8789022620E-01  1.3531047200E-01
                       3.1578414907E-01  6.6626871955E-01  8.0769420451E-01
                       4.1728106840E-01  8.3910447408E-01  2.9759293358E-01
                       1.4811978203E-01  8.9904925930E-01  6.4808658916E-01
                       5.8327241133E-01  5.7451648947E-01  2.0388488928E-01
                       8.3900590882E-01  6.6246734754E-01  8.2379198605E-01
                       8.9266702657E-01  8.1030256410E-01  3.3121370335E-01
                       6.6548155565E-01  9.2971231150E-01  6.9483134310E-01
                       1.2412306590E-01  3.1241629294E-01  7.9606303781E-01
                       1.5653889668E-01  1.5823046135E-01  3.2721009484E-01
                       3.4512530407E-01  3.8908786690E-01  1.2630566254E-01
                       4.0745440026E-01  9.3184748112E-02  6.7144662819E-01
                       5.8026317113E-01  3.5062202255E-01  7.9373173128E-01
                       6.9267023753E-01  1.7629123170E-01  3.2720527307E-01
                       8.3664790702E-01  3.9193769062E-01  1.9287596099E-01
                       9.2661910450E-01  8.0947473804E-02  6.6858444825E-01
                       5.9677368796E-02  8.3695860716E-01  7.7191950553E-01
                       1.6819696486E-01  6.5912542473E-01  2.5142049113E-01
                       3.3186306075E-01  8.6177020604E-01  9.9580020467E-02
                       4.0400018309E-01  5.8845007333E-01  6.8264427163E-01
                       5.7669599467E-01  8.4313833107E-01  7.7526311942E-01
                       6.5987440268E-01  6.2289081596E-01  3.8926670904E-01
                       8.6621343684E-01  9.1243041432E-01  1.9051630281E-01
                       9.0296583818E-01  6.5397878869E-01  6.0973136387E-01
                       8.4853583626E-02  1.3557794241E-01  9.6822704925E-01
                       9.8831783055E-01  7.9514054380E-02  3.0075260284E-01
                       2.0136314057E-01  9.9421104039E-01  2.2280966170E-01
                       4.2117764130E-01  4.2826121488E-01  4.9576574347E-01
                       3.5308613174E-01  2.5379247106E-01  4.0736732268E-01
                       5.3057301509E-01  2.8364951950E-01  3.1715697179E-01
                       3.7946884071E-01  6.5406510615E-02  1.8758581301E-02
                       4.0995557379E-01  2.6213013779E-01  8.1247707163E-01
                       2.3517468858E-01  1.4855040223E-01  6.9844318508E-01
                       2.6233401899E-01  4.3988686166E-01  7.7736728635E-01
                       2.1121984111E-01  4.1782426459E-01  4.1731398209E-01
                       7.6617643135E-02  4.9959477318E-01  6.7057248019E-01
                      -3.0273147535E-03  3.3893843695E-01  1.1625894318E-01
                       9.0825034542E-01  4.1706717782E-01  5.2327697297E-01
                       8.8693749371E-01  2.2446935587E-01  3.9528092650E-01
                       5.0725617488E-01  9.4038728870E-02  3.5118530899E-01
                       5.7627643905E-01  1.7460523597E-01  9.9763293875E-01
                       6.6437729618E-01  1.0060073842E+00  1.6816487368E-01
                       7.5124521372E-01  3.6968861622E-01  8.5815865446E-01
                       6.7428548888E-01  4.0356965692E-01  4.5620348732E-01
                       5.8641028954E-01  5.2487372084E-01  7.3305304304E-01
                       8.3581370874E-01  9.3194990083E-02  1.6921993205E-02
                       9.0540391042E-01  2.4861408395E-01  8.0004092900E-01
                       7.1928483894E-01  1.9195963499E-01  7.3783864780E-01
                       3.3359848255E-01  6.0069558134E-01  1.9452453558E-02
                       3.9839232658E-01  7.6078569649E-01  7.8407452687E-01
                       2.3491291072E-01  6.1872587860E-01  6.0908052472E-01
                       1.2910195434E-01  4.8248417527E-01  7.6566917633E-02
                       3.7332802235E-02  6.4282065351E-01  9.2554153565E-01
                       9.9302076508E-01  5.6633684694E-01  3.0182292858E-01
                       3.9097533749E-01  9.2589547050E-01  4.6317340021E-01
                       3.5614774016E-01  7.3493251266E-01  3.6377310387E-01
                       5.0164692024E-01  8.9579657642E-01  1.1572960088E-01
                       9.8799956550E-02  2.6682706712E-03  5.6247015993E-01
                       2.4401791772E-01  9.3005838565E-01  8.0028131072E-01
                       1.7613966862E-01  8.2322460740E-01  4.6596344040E-01
                       6.8724293959E-01  5.0842951405E-01  1.2755105536E-01
                       4.8482990914E-01  5.9138468101E-01  3.5059980689E-01
                       5.6889558918E-01  6.6524351041E-01  1.0311775523E+00
                       8.6033839876E-01  5.7163029161E-01 -6.8738499959E-04
                       8.8662922406E-01  7.6401804939E-01  9.3193943240E-01
                       7.2085978967E-01  6.9142865969E-01  7.8230413512E-01
                       5.8563452853E-01  2.4225068312E-02  7.1426641929E-01
                       7.4213307498E-01  8.9191316552E-01  8.9496773222E-01
                       6.8799947552E-01  8.8962700515E-01  4.6813504049E-01
                       6.9776678994E-03  7.6732729946E-01  3.0842562276E-01
                       8.8755899556E-01  8.5996960742E-01  5.5362650903E-01
                       8.0204582532E-01  7.2753124404E-01  2.8051553392E-01
                       4.6500266114E-02 -4.8404562691E-02  6.4371364748E-02
                       2.7867831967E-01  2.0516489517E-01  1.0591676401E+00
                       1.0590153874E+00  3.2132085936E-01  4.5382008823E-01
                       7.7486281906E-01  5.2173381825E-01  6.8016757777E-01
                       2.1070523876E-01  7.3323271508E-01  8.5710903356E-01
                       5.3229361665E-01  7.8536612087E-01  3.7846527505E-01
                       5.2091117866E-01  4.5148738772E-01  1.4328832770E-01
                       7.7015309667E-01  1.0257228940E+00  6.6321254209E-01
 
kptopt   1
            ngfft         144     144      72
ngkpt    1 1 2
nshiftk 1
shiftk 
0.5 0.5 0.5
ecut       30
ecutsm   0.5
pawecutdg  30
pawxcdev   0
ixc      -116133
nband    420
diemac   4

# First SCF run       
#irdwfk1   1
nstep1    100
iscf1     7
tolvrs1   1.0E-20

#Refinement using tolwfr
nstep2    250
getwfk2   -1
iscf2     7
tolwfr2   1.0E-20

# Printing flags
prtden    1
prteig    0
prtwf     1
prtposcar 0
prtcif    1
