#input for non-centrosymmetric orthorhombic HfO2

ndtset    2

autoparal 1

#Crystal Def.
ntypat   3
natom    104
typat    16*1 16*2 72*3
znucl    57 42 8
acell 3*1

rprim
  2.69790102868624E+01 -2.34201348743267E-01 -7.02776315324303E-01
 -2.38626818088466E-01  2.70469019665641E+01  2.54394826889361E-01
 -3.52415471868262E-01  1.24808545141027E-01  1.34882233547510E+01

kptopt   1
            ngfft         144     144      72
ngkpt    1 1 2
nshiftk 1
shiftk 
0.5 0.5 0.5
ecut       30
ecutsm   0.5
pawecutdg  30
pawxcdev   0
ixc      -116133
nband    420
diemac   4

# First SCF run       
#irdwfk1   1
nstep     100
iscf      7
tolvrs    1.0E-20
ionmov    2
optcell   2
dilatmx   1.04
tolmxf    1e-8
ntime     250
strtarget 4*0.0 -1.69946e-05 0.0

# Printing flags
prtden    1
prteig    0
prtwf     1
prtposcar 0
prtcif    0



xred  4.34573938765639E-01  4.40066176785283E-01  8.40675012450523E-01
  1.63220117604050E-01  3.11256500434336E-01  1.57695817822617E-01
  6.79069588912038E-02  1.71285317080123E-01  6.19838489757539E-01
  3.26009256848569E-01  8.96289482543834E-02  3.41191473292783E-01
  9.05073154479161E-01  4.16340540838565E-01  8.67378061810771E-01
  6.59740220590809E-01  3.44905553612231E-01  1.29168314427030E-01
  5.47417548936262E-01  1.90659102343880E-01  6.58109826358720E-01
  8.29440587388286E-01  5.40750390524721E-02  3.57739341413750E-01
  4.23328730241613E-01  9.34123156602476E-01  8.27136239518279E-01
  1.69825333228350E-01  8.36127019448289E-01  1.15391087806977E-01
  8.29242237853895E-02  6.71912992308048E-01  6.03414871092847E-01
  3.22717382758432E-01  5.66925288743076E-01  3.61346801690362E-01
  9.06051487829425E-01  9.29847025541363E-01  8.58127261346450E-01
  6.42550545196827E-01  8.24652635078383E-01  1.44233051217638E-01
  5.47390292309479E-01  6.82049142944895E-01  6.42290050733848E-01
  8.16141283631746E-01  5.46873123329792E-01  3.48951220207534E-01
  9.14469855880125E-02  6.46488814005754E-02  1.72171556793349E-01
  3.35124157630575E-01  1.60655046394431E-01  8.55830116665817E-01
  4.21119208342178E-01  3.46043246115076E-01  3.15928732668916E-01
  1.59394446211478E-01  4.10393933150946E-01  6.46606471856097E-01
  6.03255757447540E-01  1.09532718936900E-01  2.05507770735760E-01
  8.31494463466066E-01  1.46664007127775E-01  7.91790922540169E-01
  9.33787013946871E-01  3.35374074593460E-01  3.40550956002825E-01
  6.73274700203004E-01  4.38785575676625E-01  6.91374014975120E-01
  7.94429865268123E-02  5.87890250221593E-01  1.35310430150661E-01
  3.15784089813626E-01  6.66268748656399E-01  8.07694152549334E-01
  4.17281066736610E-01  8.39104480019201E-01  2.97592975222280E-01
  1.48119802190743E-01  8.99049263213848E-01  6.48086536637105E-01
  5.83272431920753E-01  5.74516489245320E-01  2.03884861585496E-01
  8.39005930624306E-01  6.62467343148749E-01  8.23792025704025E-01
  8.92667003575142E-01  8.10302587924598E-01  3.31213844392457E-01
  6.65481551964498E-01  9.29712298008420E-01  6.94831376696539E-01
  1.24123056797421E-01  3.12416297041429E-01  7.96063032562554E-01
  1.56538888644842E-01  1.58230451457492E-01  3.27210011438329E-01
  3.45125359758492E-01  3.89087819958928E-01  1.26305540950860E-01
  4.07454415030313E-01  9.31847307828970E-02  6.71446647779337E-01
  5.80263194114928E-01  3.50622010415194E-01  7.93731647224216E-01
  6.92670238065989E-01  1.76291201711294E-01  3.27205263007747E-01
  8.36647921288334E-01  3.91937698695809E-01  1.92876003563066E-01
  9.26619113129560E-01  8.09474722771518E-02  6.68584511686743E-01
  5.96773389375294E-02  8.36958685533603E-01  7.71919448798991E-01
  1.68196947771840E-01  6.59125455834797E-01  2.51420413820992E-01
  3.31863045086366E-01  8.61770136191534E-01  9.95800670737970E-02
  4.04000167871950E-01  5.88450082015424E-01  6.82644349338422E-01
  5.76695953057627E-01  8.43138328930531E-01  7.75263068232968E-01
  6.59874399355289E-01  6.22890815159809E-01  3.89266700753893E-01
  8.66213306806303E-01  9.12430421364405E-01  1.90516461020439E-01
  9.02965861852913E-01  6.53978811412661E-01  6.09731397690914E-01
  8.48535569996794E-02  1.35577851517548E-01  9.68226991170031E-01
  9.88317795470222E-01  7.95140890529813E-02  3.00752641892596E-01
  2.01363125971303E-01  9.94211023444644E-01  2.22809537338097E-01
  4.21177626272385E-01  4.28261218324887E-01  4.95765672291602E-01
  3.53086199958841E-01  2.53792446237525E-01  4.07367242245750E-01
  5.30573077710409E-01  2.83649540469979E-01  3.17157013796621E-01
  3.79468813315739E-01  6.54065098644065E-02  1.87585962979374E-02
  4.09955583000848E-01  2.62130132083939E-01  8.12477031729244E-01
  2.35174707743499E-01  1.48550422571059E-01  6.98443110104243E-01
  2.62334045966320E-01  4.39886842063490E-01  7.77367221848830E-01
  2.11219871862591E-01  4.17824229704858E-01  4.17313915398441E-01
  7.66177030339236E-02  4.99594781283615E-01  6.70572370082302E-01
 -3.02731874873540E-03  3.38938403986467E-01  1.16258975551550E-01
  9.08250395266265E-01  4.17067202426342E-01  5.23276977030671E-01
  8.86937487960279E-01  2.24469374120929E-01  3.95281073842634E-01
  5.07256150798793E-01  9.40387458650971E-02  3.51185273375811E-01
  5.76276455331746E-01  1.74605253145061E-01  9.97632904146460E-01
  6.64377243114901E-01  1.00600737956660E+00  1.68164835175545E-01
  7.51245226113754E-01  3.69688606633927E-01  8.58158667722765E-01
  6.74285528214084E-01  4.03569667756088E-01  4.56203457547765E-01
  5.86410313930001E-01  5.24873714232924E-01  7.33052993422011E-01
  8.35813668610013E-01  9.31950011124431E-02  1.69220761970780E-02
  9.05403925768486E-01  2.48614088022264E-01  8.00041041372308E-01
  7.19284883522767E-01  1.91959605958770E-01  7.37838440572740E-01
  3.33598362445349E-01  6.00695659879344E-01  1.94524723721126E-02
  3.98392262899610E-01  7.60785720164492E-01  7.84074502093117E-01
  2.34912886323537E-01  6.18725888572049E-01  6.09080444572020E-01
  1.29101917502706E-01  4.82484185053157E-01  7.65668947243854E-02
  3.73327678016788E-02  6.42820652375956E-01  9.25541488548601E-01
  9.93020765616959E-01  5.66336929507040E-01  3.01822933105064E-01
  3.90975333963938E-01  9.25895489457473E-01  4.63173402797852E-01
  3.56147814128335E-01  7.34932503019950E-01  3.63773319032397E-01
  5.01646914493685E-01  8.95796574642636E-01  1.15729615600023E-01
  9.88000495148362E-02  2.66829444897595E-03  5.62470004295582E-01
  2.44017933276437E-01  9.30058375941079E-01  8.00281283393164E-01
  1.76139687598561E-01  8.23224605099387E-01  4.65963405813298E-01
  6.87242964635582E-01  5.08429513862854E-01  1.27551036813728E-01
  4.84829921424833E-01  5.91384665663547E-01  3.50599771066351E-01
  5.68895616773250E-01  6.65243519929739E-01  1.03117754363326E+00
  8.60338396460770E-01  5.71630269338108E-01 -6.87365414670196E-04
  8.86629218754772E-01  7.64018028510071E-01  9.31939553440443E-01
  7.20859810008799E-01  6.91428624830491E-01  7.82304128348190E-01
  5.85634558605978E-01  2.42250767957391E-02  7.14266438075679E-01
  7.42133037801912E-01  8.91913075193182E-01  8.94967776120422E-01
  6.87999476846579E-01  8.89627041106043E-01  4.68135049643708E-01
  6.97766528729275E-03  7.67327390971333E-01  3.08425675185702E-01
  8.87558958562345E-01  8.59969592341250E-01  5.53626665279765E-01
  8.02045848659231E-01  7.27531232763037E-01  2.80515651778222E-01
  4.65001884825305E-02 -4.84046049013770E-02  6.43715632486651E-02
  2.78678302998571E-01  2.05164909292221E-01  1.05916756361456E+00
  1.05901540458387E+00  3.21320838151628E-01  4.53820077523235E-01
  7.74862861144112E-01  5.21733788893304E-01  6.80167576945909E-01
  2.10705158892972E-01  7.33232751265551E-01  8.57108868869990E-01
  5.32293638881962E-01  7.85366153611822E-01  3.78465358451329E-01
  5.20911201990231E-01  4.51487385143221E-01  1.43288270688542E-01
  7.70153140134967E-01  1.02572281473693E+00  6.63212739066279E-01
