#input for non-centrosymmetric orthorhombic HfO2

ndtset    2

autoparal 1

#Crystal Def.
ntypat   3
natom    26
typat    4*1 4*2 18*3
znucl    57 42 8
acell 3*1

rprim
  1.35105825792683E+01  3.17034704624884E-01  2.49901026097694E-02
  3.16812980927274E-01  1.36713685363126E+01  3.68838850469086E-01
  2.48598889542344E-02  3.70635152969423E-01  1.33424787080109E+01

             xred      8.5198714933E-01  9.1139910202E-01  8.4571551700E-01
                       3.4144661875E-01  6.6942642816E-01  1.7089426087E-01
                       1.2879417214E-01  3.4149314799E-01  5.9673427056E-01
                       6.4794557725E-01  1.6308343670E-01  3.4098628805E-01
                       1.9094928961E-01  1.4309672100E-01  1.5785627791E-01
                       6.6248231930E-01  3.5992646642E-01  7.9290041293E-01
                       8.0015362378E-01  6.8436692267E-01  3.8398878833E-01
                       3.1478646464E-01  8.0139257852E-01  7.0680869879E-01
                       3.2259391622E-01  3.3032729692E-01  2.8380534965E-01
                       8.3964586261E-01  1.9258393193E-01  6.5548626383E-01
                       7.5420092851E-01  8.2085046674E-01  1.7195951938E-01
                       1.6497074554E-01  6.4801748890E-01  8.3324347925E-01
                       9.9222691128E-01  1.9171331388E-01  3.0652813970E-01
                       4.8030299457E-01  2.8720697746E-01  6.4555128804E-01
                       4.3887397342E-02  6.2129834758E-01  3.7369147922E-01
                       4.9121224265E-01  8.7225594281E-01  8.5764443540E-01
                       3.9645788140E-01  9.8792423197E-01  2.4487542402E-01
                       1.6560371531E-01 -5.8595570290E-03  6.3456848111E-01
                       8.1883044721E-01  5.4102667578E-01  6.8518402612E-01
                       6.6464131995E-01  4.9538700819E-01  3.3047478858E-01
                       1.7337172336E-01  2.6503982369E-01  9.3493234494E-01
                       7.3306512171E-01  8.7257083425E-01  5.3262046806E-01
                       3.9734151092E-01  6.8075455732E-01  5.1097158960E-01
                       7.1728737379E-01  1.9144071305E-01 -7.4397988529E-03
                       1.0796389698E-01 -8.0730135512E-02  7.0420673083E-02
                       5.3385079580E-01  5.1400727858E-01  9.3959753443E-01
 
kptopt   1
            ngfft          72      75      75
ngkpt    2 2 2
nshiftk 1
shiftk 
0.5 0.5 0.5
ecut       30
ecutsm  0.5
pawecutdg  30
pawxcdev   0
ixc      -116133
nband    104
diemac   4

# First SCF run       
#irdwfk1   1
nstep1    100
iscf1     7
tolvrs1   1.0E-20

#Refinement using tolwfr
nstep2    250
getwfk2   -1
iscf2     7
tolwfr2   1.0E-20

# Printing flags
prtden    1
prteig    0
prtwf     1
prtposcar 0
prtcif    1
