#input for KTaO3

ndtset    1

autoparal 1

#Crystal Def.
ntypat   3
natom    26
typat    4*1 4*2 18*3
znucl    57 42 8
acell 3*1


rprim
  1.37007967870699E+01  4.75859699169014E-03  7.15700085433762E-01
  4.91482981884398E-03  1.32793765466634E+01 -2.62280944503263E-03
  7.17463188548198E-01 -2.99738527650345E-03  1.35382115606266E+01

             xred      8.1818604881E-01  8.6759046297E-01  8.6920629968E-01
                       3.9573605666E-01  6.2364871510E-01  1.6561902512E-01
                       1.8167267289E-01  3.6832631788E-01  6.3016547787E-01
                       6.0420319657E-01  1.2373954922E-01  3.3410319342E-01
                       1.8942094266E-01  1.6151743629E-01  1.2066847260E-01
                       7.0337334163E-01  3.3087807204E-01  7.9380556994E-01
                       8.1034414624E-01  6.6161310211E-01  3.7947319524E-01
                       2.9681021393E-01  8.3132592503E-01  7.0606301706E-01
                       3.0469726221E-01  3.1946028659E-01  3.0710835433E-01
                       9.0197750644E-01  1.8394151071E-01  7.1218349216E-01
                       6.9570964955E-01  8.1939624572E-01  1.9275252917E-01
                       9.8684126618E-02  6.8399425636E-01  7.8766948089E-01
                       9.6285743382E-01  1.6444730150E-01  2.3220585717E-01
                       5.2858364999E-01  3.1102022275E-01  6.4153272426E-01
                       3.7160419643E-02  6.6365437758E-01  2.6858519321E-01
                       4.7149629916E-01  8.1079034655E-01  8.5845944656E-01
                       3.3859025087E-01  9.7345476163E-01  1.9938384231E-01
                       3.0346626246E-01  4.3569366841E-02  5.7140241947E-01
                       6.9631198312E-01  5.4300406025E-01  9.2881029943E-01
                       6.6151462398E-01  4.7352399374E-01  3.0070054025E-01
                       2.5174136129E-01  3.6846587220E-01  9.6412793166E-01
                       7.4775759214E-01  8.6888177324E-01  5.3605457993E-01
                       3.6328601053E-01  6.6647041252E-01  5.1695007423E-01
                       6.3685232369E-01  1.6573949428E-01 -1.7589490179E-02
                       1.4371822360E-01  1.0487069323E-02 -8.5864610941E-02
                       8.5584840153E-01  5.1105906761E-01  5.8642308516E-01
 
nshiftk 1
shiftk 
0.5 0.5 0.5
#chksymbreak 0
kptopt   1
ngkpt    2 2 2

ecut 30
ixc      -116133
nband    104
nstep    150
diemac   4


# Data set 1 - Refinement of already computed GS WFs       
irdwfk1   0
irdden1   0
iscf1     7
tolvrs1   1.0E-20
nstep1    100

# Data Set 2: Response Function calculation : d/dk 
rfelfd2    2 
rfdir2     1    1    1 

nqpt2      1 
qpt2       0.0  0.0  0.0  

getwfk2   -1 
getden2   -1 

kptopt2    2 

iscf2     -3 

tolwfr2    1.0d-22 

# Data set 3 : Response Function calculation - electric field perturbation, phonons, and strain

rfphon3   1            # Will consider phonon-type perturbation 
rfelfd3   3            # Electric Field
rfstrs3   3            # Strains

rfdir3    1   1   1    # Along all reduced coordinate axis 
rfatpol3  1   26        # All the atoms will be displaced 

nqpt3     1            # One wavevector is to be considered 
qpt3      0.0 0.0 0.0  # This wavevector is q=0 (Gamma) 

kptopt3   2            # Automatic generation of k points, taking 
                       # into account the time-reversal symmetry only 

getwfk3   1            # Read the ground-state wavefunctions 
getddk3   2
                                              
tolvrs3   1.0d-20      # SCF stopping criterion 
                       



# Printing flags
prtden    1
prteig    0
prtwf     1
prtposcar 0
prtcif    0

ecutsm  0.5
            ngfft          72      75      75
pawecutdg  30
pawxcdev   0
