#input for non-centrosymmetric orthorhombic HfO2

ndtset    2

autoparal 1

#Crystal Def.
ntypat   3
natom    26
typat    4*1 4*2 18*3
znucl    57 42 8
acell 3*1

rprim
  1.33126979046790E+01  7.71624627496422E-02  1.44448253565661E-02
  7.77198492098323E-02  1.35764472517835E+01 -6.87254501808004E-01
  1.06794765985333E-02 -7.12161126158341E-01  1.35686252141476E+01

             xred      8.7596955548E-01  8.3508275907E-01  8.9586562860E-01
                       3.7591384546E-01  6.6498248999E-01  1.0541627115E-01
                       1.3152670938E-01  3.7212797042E-01  6.8140571631E-01
                       6.2943206241E-01  1.2860874404E-01  3.1838017716E-01
                       1.6794374675E-01  2.0563052219E-01  2.0184746953E-01
                       6.6970933190E-01  2.9582437604E-01  7.9712282160E-01
                       8.3777966909E-01  6.1978081589E-01  3.1119487497E-01
                       3.3923623819E-01  8.8074515220E-01  6.8961563557E-01
                       3.1630780411E-01  2.8620976560E-01  4.0064579287E-01
                       8.1594084750E-01  2.1429735231E-01  5.9685313100E-01
                       6.8067483295E-01  8.0631275161E-01  1.9606893434E-01
                       1.8093792958E-01  6.9437649479E-01  8.0463773211E-01
                       9.5638412043E-01  7.2964254917E-02  1.9508862427E-01
                       4.5705361876E-01  4.2988637797E-01  7.9878758216E-01
                       2.6249755226E-02  6.9915653600E-01  1.6278607420E-01
                       5.2600617940E-01  7.9928240037E-01  8.4001331723E-01
                       3.3289010446E-01  1.0156882550E+00  1.3594693874E-01
                       1.3160527098E-01  3.7613782000E-02  7.5145613852E-01
                       8.3269483816E-01  4.8215213170E-01  8.6736263133E-01
                       6.3285928013E-01  4.6385392911E-01  2.4955147838E-01
                       1.9092333294E-01  3.5854743431E-01  1.0264012646E+00
                       8.3558021201E-01  7.2875723882E-01  5.4079917987E-01
                       3.3759016386E-01  7.6926874774E-01  4.6095582713E-01
                       6.8681646170E-01  1.4093951516E-01 -2.8160470811E-02
                       9.9141923398E-01  4.1346581756E-01  3.5570842162E-01
                       4.9055485512E-01  1.0844443852E+00  6.4424880758E-01
 
kptopt   1
            ngfft          72      75      75
ngkpt    2 2 2
nshiftk 1
shiftk 
0.5 0.5 0.5
ecut       30
ecutsm  0.5
pawecutdg  30
pawxcdev   0
ixc      -116133
nband    104
diemac   4

# First SCF run       
#irdwfk1   1
nstep1    100
iscf1     7
tolvrs1   1.0E-20

#Refinement using tolwfr
nstep2    250
getwfk2   -1
iscf2     7
tolwfr2   1.0E-20

# Printing flags
prtden    1
prteig    0
prtwf     1
prtposcar 0
prtcif    1
