#input for non-centrosymmetric orthorhombic HfO2

ndtset    1
autoparal 1

#Crystal Def.

nsym      1
ntypat   3
natom    26
typat    4*1 4*2 18*3
znucl    57 42 8

acell 3*1

rprim
  1.33126768101650E+01  7.72053501518545E-02  1.50056498014605E-02
  7.77347913312113E-02  1.35764227024308E+01 -6.87381584859252E-01
  1.12493310595548E-02 -7.12283201759472E-01  1.35687614601348E+01

xred      
  8.75968206474279E-01  8.35057361910697E-01  8.95856747033869E-01
  3.75917005675261E-01  6.64964751996570E-01  1.05414681585136E-01
  1.31590175850921E-01  3.72052373235020E-01  6.81426324330710E-01
  6.29389833030338E-01  1.28555765067388E-01  3.18394521961309E-01
  1.67930145154463E-01  2.05632452661669E-01  2.01850890687617E-01
  6.69726785532962E-01  2.95813124120451E-01  7.97122727287705E-01
  8.37785718286281E-01  6.19781738541362E-01  3.11197333875355E-01
  3.39222176902390E-01  8.80740295835468E-01  6.89622252373144E-01
  3.16325842911097E-01  2.86208778444756E-01  4.00618612870009E-01
  8.15927100246265E-01  2.14255691308423E-01  5.96828788828398E-01
  6.80666003982526E-01  8.06291397082462E-01  1.96019317281027E-01
  1.80948779580273E-01  6.94344015076143E-01  8.04581986401941E-01
  9.56355570168713E-01  7.30013616742629E-02  1.95137102893226E-01
  4.57094200269686E-01  4.29931454427023E-01  7.98875724821929E-01
  2.62533663813392E-02  6.99169501250792E-01  1.62761628326060E-01
  5.25995910353820E-01  7.99312779681761E-01  8.39997989569519E-01
  3.32853031147831E-01  1.01567158243215E+00  1.35929326380484E-01
  1.31562073917824E-01  3.75844135856379E-02  7.51486940361879E-01
  8.32746721945004E-01  4.82124433126178E-01  8.67314650652239E-01
  6.32895373463299E-01  4.63833648804619E-01  2.49567764318364E-01
  1.90907935107346E-01  3.58538991948999E-01  1.02639864164828E+00
  8.35506252900042E-01  7.28821983513438E-01  5.40773548172067E-01
  3.37647091302745E-01  7.69327495528853E-01  4.60934366316291E-01
  6.86834799920250E-01  1.40932454132703E-01 -2.81646532447711E-02
  9.91470578312498E-01  4.13531986504372E-01  3.55756423165016E-01
  4.90479321138549E-01  1.08452016806199E+00  6.44296362171289E-01

kptopt   1
            ngfft          72      75      75

ngkpt    2 2 2
nshiftk 1
shiftk 
0.5 0.5 0.5

ecut       30
pawecutdg  30
pawxcdev   0
ixc      -116133
nband    104
diemac   4

ecutsm  0.5
nstep    100
iscf     7
tolvrs   1.0E-20
ionmov   2
optcell  2
dilatmx  1.04
tolmxf   1e-8
ntime    250
strtarget 5*0.0 1.69946e-05  



# Printing flags
prtden    1
prteig    0
prtwf     1
prtposcar 0
prtcif    1
