#input for KTaO3

ndtset    3

autoparal 1

#Crystal Def.
ntypat   3
natom    26
typat    4*1 4*2 18*3
znucl    57 42 8
acell 3*0.995 Angstrom


rprim
7.1547  0.0000  0.0000
0.0000  7.1547  0.0000
0.0000  0.0000  7.1547

             xred      8.7039931504E-01  8.8791891769E-01  8.2631252635E-01
                       3.7039931504E-01  6.1208108231E-01  1.7368747365E-01
                       1.3476865292E-01  3.4079519805E-01  6.2158313626E-01
                       6.3476865292E-01  1.5920480195E-01  3.7841686374E-01
                       1.6167644257E-01  1.2030746899E-01  1.9053466546E-01
                       6.6167644257E-01  3.7969253101E-01  8.0946533454E-01
                       8.2958787794E-01  6.9857697955E-01  2.9117382437E-01
                       3.2958787794E-01  8.0142302045E-01  7.0882617563E-01
                       3.2322210871E-01  3.0337356908E-01  3.1068756613E-01
                       8.2322210871E-01  1.9662643092E-01  6.8931243387E-01
                       6.7925807091E-01  7.8106151445E-01  1.0331883117E-01
                       1.7925807091E-01  7.1893848555E-01  8.9668116883E-01
                       9.8094417749E-01  2.1316510788E-01  3.5204192769E-01
                       4.8094417749E-01  2.8683489212E-01  6.4795807231E-01
                       4.5026655184E-02  5.7780305958E-01  2.7187951825E-01
                       5.4502665518E-01  9.2219694042E-01  7.2812048175E-01
                       3.5841168223E-01  9.5575553537E-01  2.3816466982E-01
                       1.7336042437E-01 -1.1911836928E-02  6.4142386038E-01
                       8.5841168223E-01  5.4424446463E-01  7.6183533018E-01
                       6.7336042437E-01  5.1191183693E-01  3.5857613962E-01
                       1.5866547020E-01  2.2398625811E-01  9.6464481989E-01
                       8.1448046135E-01  8.6037724132E-01  4.7929269485E-01
                       3.1448046135E-01  6.3962275868E-01  5.2070730515E-01
                       6.5866547020E-01  2.7601374189E-01  3.5355180112E-02
                      -4.8003389185E-03 -7.6927370415E-02  1.4640552462E-01
                       4.9519966108E-01  5.7692737041E-01  8.5359447538E-01
 
#chksymbreak 0
kptopt   1
ngkpt    2 2 2
nshiftk 1
shiftk
0.5 0.5 0.5

ecut 30
ixc      -116133
nband    104
nstep    150
diemac   4


# Data set 1 - Refinement of already computed GS WFs       
irdwfk1   0
irdden1   0
iscf1     7
tolvrs1   1.0E-20
nstep1    100

# Data Set 2: Response Function calculation : d/dk 
rfelfd2    2 
rfdir2     1    1    1 

nqpt2      1 
qpt2       0.0  0.0  0.0  

getwfk2   -1 
getden2   -1 

kptopt2    2 

iscf2     -3 

tolwfr2    1.0d-22 

# Data set 3 : Response Function calculation - electric field perturbation, phonons, and strain

rfphon3   1            # Will consider phonon-type perturbation 
rfelfd3   3            # Electric Field
rfstrs3   3            # Strains

rfdir3    1   1   1    # Along all reduced coordinate axis 
rfatpol3  1   26        # All the atoms will be displaced 

nqpt3     1            # One wavevector is to be considered 
qpt3      0.0 0.0 0.0  # This wavevector is q=0 (Gamma) 

kptopt3   2            # Automatic generation of k points, taking 
                       # into account the time-reversal symmetry only 

getwfk3   1            # Read the ground-state wavefunctions 
getddk3   2
                                              
tolvrs3   1.0d-20      # SCF stopping criterion 
                       



# Printing flags
prtden    1
prteig    0
prtwf     1
prtposcar 0
prtcif    0

ecutsm 0.5
            ngfft          72      72      72
pawecutdg  30
pawxcdev   0
