#input for KTaO3

ndtset    3

autoparal 1

#Crystal Def.
ntypat   3
natom    26
typat    4*1 4*2 18*3
znucl    57 42 8
acell 3*1


rprim
  1.35736666325860E+01 -7.06565487259781E-01  0.00000000000000E+00
 -7.16629777198112E-01  1.35783534275847E+01  0.00000000000000E+00
  0.00000000000000E+00  0.00000000000000E+00  1.33102488404547E+01

             xred      8.3470628509E-01  8.9526940946E-01  8.7601110314E-01
                       3.7108168386E-01  6.8181612731E-01  1.3058000186E-01
                       1.2891831614E-01  3.1818387269E-01  6.3058000186E-01
                       6.6529371491E-01  1.0473059054E-01  3.7601110314E-01
                       2.0571281196E-01  2.0264253118E-01  1.6884641864E-01
                       6.2015333109E-01  3.1084185517E-01  8.3844386989E-01
                       8.7984666891E-01  6.8915814483E-01  3.3844386989E-01
                       2.9428718804E-01  7.9735746882E-01  6.6884641864E-01
                       2.8662866561E-01  4.0222741834E-01  3.1628048112E-01
                       8.0645367504E-01  1.9573950543E-01  6.8079901518E-01
                       6.9354632496E-01  8.0426049457E-01  1.8079901518E-01
                       2.1337133439E-01  5.9777258166E-01  8.1628048112E-01
                       1.0173623448E+00  1.3462772638E-01  3.3291830185E-01
                       4.6362954873E-01  2.4886193827E-01  6.3217668265E-01
                       3.6370451272E-02  7.5113806173E-01  1.3217668265E-01
                       4.8263765518E-01  8.6537227362E-01  8.3291830185E-01
                       3.5925149207E-01  1.0276138951E+00  1.8902925905E-01
                       1.4074850793E-01 -2.7613895100E-02  6.8902925905E-01
                       7.3075324416E-01  5.3979972079E-01  8.3614627377E-01
                       7.6924675584E-01  4.6020027921E-01  3.3614627377E-01
                       7.2050218232E-02  1.9770039791E-01  9.5683431681E-01
                       7.9985991561E-01  8.3857891511E-01  5.2612780347E-01
                       4.2794978177E-01  8.0229960209E-01  4.5683431681E-01
                       7.0014008439E-01  1.6142108489E-01  2.6127803466E-02
                       4.1506492077E-01  3.5594319655E-01  9.9080647259E-01
                       1.0849350792E+00  6.4405680345E-01  4.9080647259E-01
 
nshiftk 1
shiftk 
0.5 0.5 0.5
#chksymbreak 0
kptopt   1
ngkpt    2 2 2

ecut 30
ixc      -116133
nband    104
nstep    150
diemac   4


# Data set 1 - Refinement of already computed GS WFs       
irdwfk1   0
irdden1   0
iscf1     7
tolvrs1   1.0E-20
nstep1    100

# Data Set 2: Response Function calculation : d/dk 
rfelfd2    2 
rfdir2     1    1    1 

nqpt2      1 
qpt2       0.0  0.0  0.0  

getwfk2   -1 
getden2   -1 

kptopt2    2 

iscf2     -3 

tolwfr2    1.0d-22 

# Data set 3 : Response Function calculation - electric field perturbation, phonons, and strain

rfphon3   1            # Will consider phonon-type perturbation 
rfelfd3   3            # Electric Field
rfstrs3   3            # Strains

rfdir3    1   1   1    # Along all reduced coordinate axis 
rfatpol3  1   26        # All the atoms will be displaced 

nqpt3     1            # One wavevector is to be considered 
qpt3      0.0 0.0 0.0  # This wavevector is q=0 (Gamma) 

kptopt3   2            # Automatic generation of k points, taking 
                       # into account the time-reversal symmetry only 

getwfk3   1            # Read the ground-state wavefunctions 
getddk3   2
                                              
tolvrs3   1.0d-20      # SCF stopping criterion 
                       



# Printing flags
prtden    1
prteig    0
prtwf     1
prtposcar 0
prtcif    0

ecutsm   0.5
            ngfft          72      75      75
pawecutdg  30
pawxcdev   0
