#input for non-centrosymmetric orthorhombic HfO2

ndtset    1
autoparal 1

#Crystal Def.

nsym     1
ntypat   3
natom    26
typat    4*1 4*2 18*3
znucl    57 42 8

acell 3*1

rprim
  1.32692674020115E+01 -6.77022195237729E-02  3.69878934055677E-01
 -4.78686332891616E-02  1.36133195178450E+01  5.55702025601457E-01
  3.72588473959611E-01  5.82814395486217E-01  1.36020757129139E+01

             xred    
  8.48599943711570E-01  8.54324129700367E-01  8.10958449338933E-01
  3.81042563861345E-01  5.90350396030933E-01  1.63027243072306E-01
  1.31854777324448E-01  3.26869286570841E-01  6.17053597161527E-01
  6.23584654502537E-01  1.58561263451959E-01  3.91500286628040E-01
  1.57660358531569E-01  1.17737631446928E-01  1.89826672502530E-01
  6.65232780696030E-01  3.82561985072862E-01  8.08942032692100E-01
  8.31231829266437E-01  6.96999595445758E-01  2.96833540546062E-01
  3.26900228601174E-01  7.93471206872690E-01  6.98374270465838E-01
  3.22505806471988E-01  2.96163697103324E-01  3.28387693278537E-01
  8.19486636663717E-01  1.85819582305738E-01  7.27729298840731E-01
  6.81693765433399E-01  7.68261666532998E-01  1.06360430830240E-01
  1.86434112650140E-01  7.01706288459167E-01  9.02739084249555E-01
  9.72670743614812E-01  2.03223683243509E-01  3.54894166290599E-01
  4.79444780200067E-01  3.02382469663089E-01  6.69317103350178E-01
  5.08345326337139E-02  5.83434686440412E-01  2.76346683168280E-01
  5.34133080148334E-01  9.41886062818692E-01  6.81956438510975E-01
  3.56440363196673E-01  9.61309795353225E-01  2.35809946902615E-01
  1.57043012792266E-01 -2.33806522486194E-02  6.46630853612702E-01
  8.80415211243893E-01  5.32026599178321E-01  7.37377456639513E-01
  6.76077809563050E-01  5.06976965769952E-01  3.79086709858384E-01
  1.87554262894861E-01  2.60864846052250E-01  9.79673362996703E-01
  8.15107240194777E-01  8.56832446461210E-01  4.69767802137668E-01
  3.08922307384959E-01  6.40725820735235E-01  5.20576389430338E-01
  6.33984155946056E-01  3.13367302106517E-01  5.07743069290911E-02
 -7.00318015375475E-03 -6.16619353701209E-02  1.24427413593759E-01
  5.28148222655420E-01  6.09185180805635E-01  8.31628766982327E-01

kptopt   1
ngkpt    2 2 2
nshiftk 1
shiftk 
0.5 0.5 0.5

ecut       30
pawecutdg  30
pawxcdev   0
ixc      -116133
nband    104
diemac   4

ecutsm  0.5
nstep    100
iscf     7
tolvrs   1.0E-20
ionmov   2
optcell  2
dilatmx  1.04
tolmxf   1e-8
ntime    150
strtarget 3*0.0 0.0 3.39893e-05 0.0



# Printing flags
prtden    1
prteig    0
prtwf     1
prtposcar 0
prtcif    1
