#input for non-centrosymmetric orthorhombic HfO2

ndtset    2

autoparal 1

#Crystal Def.
ntypat   3
natom    26
typat    4*1 4*2 18*3
znucl    57 42 8
acell 3*1

rprim
  1.32685679184656E+01 -7.18051567346769E-02  3.67589374128313E-01
 -5.19857489437282E-02  1.36129197090494E+01  5.48971757532889E-01
  3.69912768907959E-01  5.75814063199565E-01  1.36054175359100E+01

             xred      8.4737994312E-01  8.5374123804E-01  8.1121635161E-01
                       3.8088847798E-01  5.8974913525E-01  1.6297052183E-01
                       1.3218593186E-01  3.2627754251E-01  6.1775919429E-01
                       6.2347743897E-01  1.5830139015E-01  3.9108817285E-01
                       1.5741171401E-01  1.1777324233E-01  1.8993009915E-01
                       6.6567412837E-01  3.8243503291E-01  8.0900774189E-01
                       8.3108784368E-01  6.9715622723E-01  2.9656744523E-01
                       3.2674272405E-01  7.9342011808E-01  6.9817526345E-01
                       3.2240811248E-01  2.9609626255E-01  3.2885900436E-01
                       8.1965579120E-01  1.8549190473E-01  7.2832234854E-01
                       6.8042103634E-01  7.6992641465E-01  1.0749400466E-01
                       1.8735929822E-01  7.0137991426E-01  9.0274034689E-01
                       9.7254409171E-01  2.0316961991E-01  3.5505509172E-01
                       4.7987177868E-01  3.0256789281E-01  6.6926727117E-01
                       5.0430649833E-02  5.8365763852E-01  2.7416717818E-01
                       5.3417173963E-01  9.4195662094E-01  6.8039581685E-01
                       3.5570236337E-01  9.6127498560E-01  2.3656570491E-01
                       1.5681330951E-01 -2.3535048500E-02  6.4744268785E-01
                       8.8114775325E-01  5.3162272774E-01  7.3785816152E-01
                       6.7612710971E-01  5.0695716952E-01  3.7872912627E-01
                       1.8811425932E-01  2.6136543733E-01  9.8021688670E-01
                       8.1658539992E-01  8.5664369666E-01  4.6990323868E-01
                       3.0797864770E-01  6.4032691436E-01  5.2065247053E-01
                       6.3336718561E-01  3.1353086044E-01  5.0722852328E-02
                      -7.2349830701E-03 -6.1346592933E-02  1.2366262030E-01
                       5.2968825457E-01  6.1005965489E-01  8.3123039823E-01
 
kptopt   1
            ngfft          72      75      75
ngkpt    2 2 2
nshiftk 1
shiftk 
0.5 0.5 0.5
ecut       30
ecutsm  0.5
pawecutdg  30
pawxcdev   0
ixc      -116133
nband    104
diemac   4

# First SCF run       
#irdwfk1   1
nstep1    100
iscf1     7
tolvrs1   1.0E-20

#Refinement using tolwfr
nstep2    250
getwfk2   -1
iscf2     7
tolwfr2   1.0E-20

# Printing flags
prtden    1
prteig    0
prtwf     1
prtposcar 0
prtcif    1
