#input for KTaO3

ndtset    3

autoparal 1

#Crystal Def.
ntypat   3
natom    26
typat    4*1 4*2 18*3
znucl    57 42 8
acell 3*1


rprim
  1.33115553767978E+01 -7.59964454528680E-02  2.75047545710506E-02
 -7.60817653745021E-02  1.35771463967374E+01  6.85332841003728E-01
  2.39624581832519E-02  7.12377104761052E-01  1.35681556039772E+01

             xred      8.6796028209E-01  8.7027688403E-01  8.1816182150E-01
                       3.7126113565E-01  6.2660566988E-01  1.8029642785E-01
                       1.2444089996E-01  3.3474458147E-01  6.0484261033E-01
                       6.2372975785E-01  1.6444340682E-01  3.9502774148E-01
                       1.6154258664E-01  1.2001418022E-01  1.8907783308E-01
                       6.6119707963E-01  3.8061928978E-01  8.1027976731E-01
                       8.3204877196E-01  7.0489018797E-01  2.9831472608E-01
                       3.3037853078E-01  7.9501441444E-01  7.0213795977E-01
                       3.1944793840E-01  3.0588876190E-01  3.0581308981E-01
                       8.1894831446E-01  1.9377514260E-01  6.9786429801E-01
                       6.8354335549E-01  7.8454841547E-01  9.9778494050E-02
                       1.8405168009E-01  7.1282014795E-01  9.0253816349E-01
                       9.7367194057E-01  1.9910544998E-01  3.3920589335E-01
                       4.7391727260E-01  2.9907700885E-01  6.6098530061E-01
                       4.4044000163E-02  5.7348584088E-01  3.0235693210E-01
                       5.4288323634E-01  9.2972105741E-01  6.9901451832E-01
                       3.6658161255E-01  9.6413794737E-01  2.4872386439E-01
                       1.6712188625E-01 -1.8214302347E-02  6.3389450506E-01
                       8.6886496558E-01  5.3764473925E-01  7.4785062993E-01
                       6.6773705277E-01  5.1511612415E-01  3.6625675540E-01
                       1.6489654205E-01  2.3255192161E-01  9.6093931033E-01
                       8.1050773673E-01  8.5877696905E-01  4.7313382515E-01
                       3.1240653675E-01  6.4117709558E-01  5.2662324628E-01
                       6.6115045102E-01  2.7262868782E-01  4.0351295334E-02
                       7.5338729272E-03 -8.4691987727E-02  1.4252413992E-01
                       5.1013256073E-01  5.8584236561E-01  8.5400685106E-01
 
nshiftk 1
shiftk 
0.5 0.5 0.5
#chksymbreak 0
kptopt   1
ngkpt    2 2 2

ecut 30
ixc      -116133
nband    104
nstep    150
diemac   4


# Data set 1 - Refinement of already computed GS WFs       
irdwfk1   0
irdden1   0
iscf1     7
tolvrs1   1.0E-20
nstep1    100

# Data Set 2: Response Function calculation : d/dk 
rfelfd2    2 
rfdir2     1    1    1 

nqpt2      1 
qpt2       0.0  0.0  0.0  

getwfk2   -1 
getden2   -1 

kptopt2    2 

iscf2     -3 

tolwfr2    1.0d-22 

# Data set 3 : Response Function calculation - electric field perturbation, phonons, and strain

rfphon3   1            # Will consider phonon-type perturbation 
rfelfd3   3            # Electric Field
rfstrs3   3            # Strains

rfdir3    1   1   1    # Along all reduced coordinate axis 
rfatpol3  1   26        # All the atoms will be displaced 

nqpt3     1            # One wavevector is to be considered 
qpt3      0.0 0.0 0.0  # This wavevector is q=0 (Gamma) 

kptopt3   2            # Automatic generation of k points, taking 
                       # into account the time-reversal symmetry only 

getwfk3   1            # Read the ground-state wavefunctions 
getddk3   2
                                              
tolvrs3   1.0d-20      # SCF stopping criterion 
                       



# Printing flags
prtden    1
prteig    0
prtwf     1
prtposcar 0
prtcif    0

ecutsm  0.5
            ngfft          72      75      75
pawecutdg  30
pawxcdev   0
