#input for non-centrosymmetric orthorhombic HfO2

ndtset    1
autoparal 1

#Crystal Def.

nsym      1
ntypat   3
natom    26
typat    4*1 4*2 18*3
znucl    57 42 8

acell 3*1

rprim
  1.35735738513400E+01  4.38595047627427E-02  7.04730955735946E-01
  5.10246463088591E-02  1.33147390398416E+01 -1.54760872435955E-01
  6.98184897104096E-01 -1.55702267786579E-01  1.35748546863184E+01

             xred   
  8.17659375253222E-01  8.64937389445820E-01  8.68921168014797E-01
  3.94238207963352E-01  6.23548810625386E-01  1.64331044544892E-01
  1.80769766550355E-01  3.72253775815152E-01  6.26807988069520E-01
  6.04308405500400E-01  1.24297056123222E-01  3.34097348453339E-01
  1.88379158938411E-01  1.62284857060373E-01  1.20331213420490E-01
  7.03227238531612E-01  3.28824024647773E-01  7.95393028392925E-01
  8.09407857030036E-01  6.61131224238847E-01  3.81043966216145E-01
  2.98801806198073E-01  8.32968842084410E-01  7.05704977724703E-01
  3.06060079373323E-01  3.19739618078887E-01  3.05979067413086E-01
  9.04574590989657E-01  1.84401895130716E-01  7.11285267733298E-01
  6.97404490456654E-01  8.18602046399509E-01  1.93501481951901E-01
  1.01790203025741E-01  6.83159774095985E-01  7.85848810699700E-01
  9.60302872564175E-01  1.67126116759993E-01  2.32882315878317E-01
  5.28033903982877E-01  3.14005116573295E-01  6.40850348713294E-01
  3.92297925653081E-02  6.60569057387381E-01  2.72511437823168E-01
  4.73801505996254E-01  8.08115396911251E-01  8.58570192966893E-01
  3.37719033837077E-01  9.73557292934829E-01  1.98032522180264E-01
  3.05155023204808E-01  4.44666616459855E-02  5.75271995087019E-01
  7.01016148840543E-01  5.41308066807511E-01  9.32057954491130E-01
  6.60208243835137E-01  4.74158718554902E-01  2.98966644621561E-01
  2.48550263595630E-01  3.65622300632879E-01  9.64825952621329E-01
  7.45672174795743E-01  8.70794578585003E-01  5.37975718692657E-01
  3.64366252792658E-01  6.67789265545407E-01  5.13941719619851E-01
  6.34057510920363E-01  1.65775816646988E-01 -2.00600704160993E-02
  1.41642464435146E-01  7.50528438955016E-03 -8.55455581524739E-02
  8.53623628836531E-01  5.13057012905089E-01  5.86473463239112E-01



kptopt   1
ngkpt    2 2 2
nshiftk 1
shiftk 
0.5 0.5 0.5

ecut       30
pawecutdg  30
pawxcdev   0
ixc      -116133
nband    104
diemac   4

ecutsm  0.5
nstep    100
iscf     7
tolvrs   1.0E-20
ionmov   2
optcell  2
dilatmx  1.04
tolmxf   1e-8
ntime    150
strtarget 3*0.00 1*-3.39893e-05  2*0.0



# Printing flags
prtden    1
prteig    0
prtwf     1
prtposcar 0
prtcif    1
