#input for non-centrosymmetric orthorhombic HfO2

ndtset    2

autoparal 1

#Crystal Def.
ntypat   3
natom    26
typat    4*1 4*2 18*3
znucl    57 42 8
acell 3*1

rprim
  1.35735741486164E+01  4.38594795205941E-02  7.04731416754224E-01
  5.10246250426677E-02  1.33147394793949E+01 -1.54761046817622E-01
  6.98185406360857E-01 -1.55702460943502E-01  1.35748540701653E+01

             xred      8.1765937217E-01  8.6493741062E-01  8.6892112890E-01
                       3.9423821390E-01  6.2354878717E-01  1.6433108719E-01
                       1.8076979259E-01  3.7225370538E-01  6.2680800789E-01
                       6.0430839611E-01  1.2429708049E-01  3.3409731068E-01
                       1.8837910890E-01  1.6228483865E-01  1.2033128910E-01
                       7.0322729420E-01  3.2882404322E-01  7.9539292225E-01
                       8.0940787453E-01  6.6113122408E-01  3.8104386236E-01
                       2.9880178990E-01  8.3296881501E-01  7.0570504379E-01
                       3.0606011290E-01  3.1973962200E-01  3.0597916303E-01
                       9.0457456361E-01  1.8440186138E-01  7.1128505907E-01
                       6.9740446339E-01  8.1860205317E-01  1.9350144470E-01
                       1.0179021474E-01  6.8315973703E-01  7.8584883513E-01
                       9.6030286923E-01  1.6712618317E-01  2.3288251516E-01
                       5.2803392189E-01  3.1400515387E-01  6.4085030539E-01
                       3.9229785718E-02  6.6056904847E-01  2.7251122621E-01
                       4.7380143452E-01  8.0811546229E-01  8.5857031561E-01
                       3.3771898819E-01  9.7355731302E-01  1.9803263512E-01
                       3.0515495360E-01  4.4466671474E-02  5.7527214964E-01
                       7.0101619575E-01  5.4130809553E-01  9.3205782859E-01
                       6.6020826516E-01  4.7415871045E-01  2.9896655725E-01
                       2.4855030094E-01  3.6562224629E-01  9.6482602666E-01
                       7.4567214191E-01  8.7079452285E-01  5.3797571716E-01
                       3.6436632497E-01  6.6778928508E-01  5.1394177371E-01
                       6.3405765529E-01  1.6577584750E-01 -2.0060122241E-02
                       1.4164226490E-01  7.5052982993E-03 -8.5545434784E-02
                       8.5362370102E-01  5.1305698352E-01  5.8647335242E-01
 
kptopt   1
            ngfft          72      75      75
ngkpt    2 2 2
nshiftk 1
shiftk 
0.5 0.5 0.5
ecut       30
ecutsm  0.5
pawecutdg  30
pawxcdev   0
ixc      -116133
nband    104
diemac   4

# First SCF run       
#irdwfk1   1
nstep1    100
iscf1     7
tolvrs1   1.0E-20

#Refinement using tolwfr
nstep2    250
getwfk2   -1
iscf2     7
tolwfr2   1.0E-20

# Printing flags
prtden    1
prteig    0
prtwf     1
prtposcar 0
prtcif    1
