#input for KTaO3

ndtset    3

autoparal 1

#Crystal Def.
ntypat   3
natom    26
typat    4*1 4*2 18*3
znucl    57 42 8
acell 3*1


rprim
  1.32222825230639E+01  0.00000000000000E+00  0.00000000000000E+00
  0.00000000000000E+00  1.36035713925780E+01  6.96489062682259E-01
  0.00000000000000E+00  7.23309881775496E-01  1.36005529836539E+01

             xred      8.6899441358E-01  8.7138265662E-01  8.1928186740E-01
                       3.6899441358E-01  6.2861734338E-01  1.8071813260E-01
                       1.2432519649E-01  3.3495185733E-01  6.0449173117E-01
                       6.2432519649E-01  1.6504814267E-01  3.9550826883E-01
                       1.6186011144E-01  1.1979000658E-01  1.8926508600E-01
                       6.6186011144E-01  3.8020999342E-01  8.1073491400E-01
                       8.3098177137E-01  7.0529765924E-01  2.9838462476E-01
                       3.3098177137E-01  7.9470234076E-01  7.0161537524E-01
                       3.1972870244E-01  3.0639349671E-01  3.0294373885E-01
                       8.1972870244E-01  1.9360650329E-01  6.9705626115E-01
                       6.8281974459E-01  7.8569395887E-01  9.8918227443E-02
                       1.8281974459E-01  7.1430604113E-01  9.0108177256E-01
                       9.7305167478E-01  1.9976888328E-01  3.3884288646E-01
                       4.7305167478E-01  3.0023111672E-01  6.6115711354E-01
                       4.3439036216E-02  5.7067635467E-01  3.0158159951E-01
                       5.4343903622E-01  9.2932364533E-01  6.9841840049E-01
                       3.6930684730E-01  9.6391376232E-01  2.5120575929E-01
                       1.6628965040E-01 -1.7257471538E-02  6.3362537683E-01
                       8.6930684730E-01  5.3608623768E-01  7.4879424071E-01
                       6.6628965040E-01  5.1725747154E-01  3.6637462317E-01
                       1.6345299943E-01  2.2908793697E-01  9.6039007147E-01
                       8.1151415418E-01  8.5815090799E-01  4.7352772431E-01
                       3.1151415418E-01  6.4184909201E-01  5.2647227569E-01
                       6.6345299943E-01  2.7091206303E-01  3.9609928533E-02
                       9.2356978096E-03 -8.5762371898E-02  1.4502746235E-01
                       5.0923569781E-01  5.8576237190E-01  8.5497253765E-01
 
nshiftk 1
shiftk 
0.5 0.5 0.5
#chksymbreak 0
kptopt   1
ngkpt    2 2 2

ecut 30
ixc      -116133
nband    104
nstep    150
diemac   4


# Data set 1 - Refinement of already computed GS WFs       
irdwfk1   0
irdden1   0
iscf1     7
tolvrs1   1.0E-20
nstep1    100

# Data Set 2: Response Function calculation : d/dk 
rfelfd2    2 
rfdir2     1    1    1 

nqpt2      1 
qpt2       0.0  0.0  0.0  

getwfk2   -1 
getden2   -1 

kptopt2    2 

iscf2     -3 

tolwfr2    1.0d-22 

# Data set 3 : Response Function calculation - electric field perturbation, phonons, and strain

rfphon3   1            # Will consider phonon-type perturbation 
rfelfd3   3            # Electric Field
rfstrs3   3            # Strains

rfdir3    1   1   1    # Along all reduced coordinate axis 
rfatpol3  1   26        # All the atoms will be displaced 

nqpt3     1            # One wavevector is to be considered 
qpt3      0.0 0.0 0.0  # This wavevector is q=0 (Gamma) 

kptopt3   2            # Automatic generation of k points, taking 
                       # into account the time-reversal symmetry only 

getwfk3   1            # Read the ground-state wavefunctions 
getddk3   2
                                              
tolvrs3   1.0d-20      # SCF stopping criterion 
                       



# Printing flags
prtden    1
prteig    0
prtwf     1
prtposcar 0
prtcif    0

ecutsm  0.5
            ngfft          72      75      75
pawecutdg  30
pawxcdev   0
