#input for KTaO3

ndtset    3

autoparal 1

#Crystal Def.
ntypat   3
natom    26
typat    4*1 4*2 18*3
znucl    57 42 8
acell 3*1


rprim
  1.33099608737729E+01  1.55312855611872E-01 -6.63121842329386E-02
  1.54950676876636E-01  1.35753758489665E+01  6.86417495299385E-01
 -5.92407868891220E-02  7.13377469676879E-01  1.35758935883153E+01

             xred      8.7295645124E-01  8.7578043344E-01  8.2033474160E-01
                       3.6294874754E-01  6.3373227181E-01  1.8315436024E-01
                       1.2351113465E-01  3.3605143983E-01  6.0527601887E-01
                       6.2448984710E-01  1.6657448827E-01  3.9472384835E-01
                       1.6175378398E-01  1.1882225612E-01  1.9047255813E-01
                       6.6210942720E-01  3.7991490266E-01  8.1102702741E-01
                       8.2843884806E-01  7.0461059524E-01  2.9779420719E-01
                       3.3295314522E-01  7.9459172979E-01  7.0155388287E-01
                       3.1830957270E-01  3.0755683076E-01  2.9987453701E-01
                       8.2004609917E-01  1.9494910206E-01  6.9129943867E-01
                       6.8518918888E-01  7.9034129961E-01  9.5943050745E-02
                       1.8251192454E-01  7.1486266237E-01  8.9784740002E-01
                       9.7432432213E-01  2.0065473104E-01  3.3847180874E-01
                       4.7350438050E-01  3.0166291815E-01  6.6085425776E-01
                       4.0344315070E-02  5.6641895128E-01  3.0160710801E-01
                       5.4454551651E-01  9.2450995217E-01  6.9779044119E-01
                       3.7240223385E-01  9.6301650167E-01  2.5557105332E-01
                       1.6814104554E-01 -1.3854225407E-02  6.3429306418E-01
                       8.6483463139E-01  5.3600400011E-01  7.5183233851E-01
                       6.6425726998E-01  5.2062568540E-01  3.6508443096E-01
                       1.5890514857E-01  2.2372455886E-01  9.5919755042E-01
                       8.1289172180E-01  8.5928803593E-01  4.7283523077E-01
                       3.0921411743E-01  6.4173451625E-01  5.2640046080E-01
                       6.6949386489E-01  2.6418151821E-01  3.7611379643E-02
                       1.5693412442E-02 -8.9385536793E-02  1.4909413565E-01
                       5.0622984965E-01  5.8363038118E-01  8.6005566894E-01
 
nshiftk 1
shiftk 
0.5 0.5 0.5
#chksymbreak 0
kptopt   1
ngkpt    2 2 2

ecut 30
ixc      -116133
nband    104
nstep    150
diemac   4


# Data set 1 - Refinement of already computed GS WFs       
irdwfk1   0
irdden1   0
iscf1     7
tolvrs1   1.0E-20
nstep1    100

# Data Set 2: Response Function calculation : d/dk 
rfelfd2    2 
rfdir2     1    1    1 

nqpt2      1 
qpt2       0.0  0.0  0.0  

getwfk2   -1 
getden2   -1 

kptopt2    2 

iscf2     -3 

tolwfr2    1.0d-22 

# Data set 3 : Response Function calculation - electric field perturbation, phonons, and strain

rfphon3   1            # Will consider phonon-type perturbation 
rfelfd3   3            # Electric Field
rfstrs3   3            # Strains

rfdir3    1   1   1    # Along all reduced coordinate axis 
rfatpol3  1   26        # All the atoms will be displaced 

nqpt3     1            # One wavevector is to be considered 
qpt3      0.0 0.0 0.0  # This wavevector is q=0 (Gamma) 

kptopt3   2            # Automatic generation of k points, taking 
                       # into account the time-reversal symmetry only 

getwfk3   1            # Read the ground-state wavefunctions 
getddk3   2
                                              
tolvrs3   1.0d-20      # SCF stopping criterion 
                       



# Printing flags
prtden    1
prteig    0
prtwf     1
prtposcar 0
prtcif    0

ecutsm  0.5
            ngfft          72      75      75
pawecutdg  30
pawxcdev   0
