#input for non-centrosymmetric orthorhombic HfO2

ndtset    1
autoparal 1

#Crystal Def.

nsym      1
ntypat   3
natom    26
typat    4*1 4*2 18*3
znucl    57 42 8

acell 3*1

rprim
  1.36138003359882E+01  3.83176249144436E-01 -5.63275929461106E-01
  3.80079608448011E-01  1.32665607293846E+01  7.69770298177313E-02
 -5.61015007591057E-01  5.82249819264575E-02  1.36136956689863E+01

xred      
  8.81599403793968E-01  8.67710291566751E-01  8.25467848431665E-01
  3.37469037395364E-01  6.18693942550327E-01  8.85469109124856E-02
  1.09829537531548E-01  3.77075634593241E-01  6.57627312882496E-01
  6.89423380855832E-01  1.54253692958238E-01  3.53276640345758E-01
  2.03863573709528E-01  1.68701491399116E-01  1.96418791085272E-01
  6.91278853457888E-01  3.34098128483612E-01  8.83160817367703E-01
  8.02009883536400E-01  6.73519271844083E-01  2.93360799791048E-01
  3.09745506423237E-01  8.42732842827983E-01  6.17504789924665E-01
  3.92281492562769E-01  3.19369569285456E-01  2.70099216701125E-01
  7.69230931762529E-01  1.80427133543596E-01  6.85363753849673E-01
  5.96819981715723E-01  8.11842432290900E-01  2.01228366493224E-01
  1.69848360750083E-01  6.77809834964645E-01  7.95198318954122E-01
  1.03049632906203E+00  1.83858916309612E-01  3.55613597065747E-01
  4.49209271282461E-01  3.67727559923773E-01  8.15699044560036E-01
 -2.11789686071946E-02  6.91823261334057E-01  1.39597121950252E-01
  5.18322166796021E-01  8.10766262748861E-01  7.62867535906416E-01
  2.25654935019342E-01  9.48716789555328E-01  8.40410214424220E-02
  1.44049305522061E-01  2.78177550823129E-02  7.01949738282583E-01
  8.30944525454720E-01  5.19650056025214E-01  8.04090854393134E-01
  8.20759585078198E-01  4.66895174612920E-01  4.43613892223273E-01
  1.22128719423060E-01  3.23489374313614E-01  1.00595004667033E+00
  8.52482273686179E-01  8.44523856560619E-01  4.75317178890259E-01
  2.63231073250537E-01  6.44485521061872E-01  4.61044594683587E-01
  7.63644129383671E-01  1.18324317437471E-01  3.19017286032892E-02
  6.69538523692117E-01  4.68693534152223E-01  1.11207603148182E+00
  3.77318187479478E-01  1.00699335452160E+00  4.38984047109070E-01


kptopt   1
            ngfft          72      75      75

ngkpt    2 2 2
nshiftk 1
shiftk 
0.5 0.5 0.5

ecut       30
pawecutdg  30
pawxcdev   0
ixc      -116133
nband    104
diemac   4

ecutsm  0.5
nstep    100
iscf     7
tolvrs   1.0E-20
ionmov   2
optcell  2
dilatmx  1.04
tolmxf   1e-8
ntime    150
strtarget 5*0.0 3.39893e-05 



# Printing flags
prtden    1
prteig    0
prtwf     1
prtposcar 0
prtcif    1
