#input for KTaO3

ndtset    3

autoparal 1

#Crystal Def.
ntypat   3
natom    26
typat    4*1 4*2 18*3
znucl    57 42 8
acell 3*1


rprim
  1.35528329676863E+01  1.11953599347865E-05 -6.99034652676239E-01
  6.50478052197085E-05  1.33558813494065E+01  1.02298893470615E-03
 -6.96236974827821E-01  1.04389079286959E-03  1.35630782550930E+01

             xred      8.9530941931E-01  8.7614799212E-01  8.3526512914E-01
                       3.1830971484E-01  6.2961447665E-01  1.2825125222E-01
                       1.0519056739E-01  3.7569572783E-01  6.6494402480E-01
                       6.8127431074E-01  1.3022858001E-01  3.7245310903E-01
                       2.0230790831E-01  1.6830653213E-01  2.0541654586E-01
                       6.8960981414E-01  3.3910725251E-01  8.8038565567E-01
                       7.9745923258E-01  6.6900937073E-01  2.9543281879E-01
                       3.1060519222E-01  8.3844329743E-01  6.1948836865E-01
                       4.0171358232E-01  3.1581039704E-01  2.8647483553E-01
                       8.0520199827E-01  1.8099688643E-01  6.9419074100E-01
                       5.9784905784E-01  8.1602401924E-01  2.1452877726E-01
                       1.9616331166E-01  6.8088978825E-01  8.0591651492E-01
                       1.0266491290E+00  1.8972693906E-01  3.5904250458E-01
                       4.6080782716E-01  3.3715712652E-01  7.6845016399E-01
                      -2.7681940773E-02  6.8797934540E-01  1.4061089339E-01
                       5.4045616004E-01  8.3628339096E-01  7.2875582767E-01
                       1.9732730817E-01  9.5620761588E-01  7.2771273439E-02
                       1.6148747758E-01  2.5669188032E-02  7.0050614399E-01
                       8.3982928000E-01  5.2579164468E-01  8.0015821184E-01
                       8.0051025986E-01  4.5727717368E-01  4.2821829865E-01
                       1.3482456340E-01  3.3143075333E-01  1.0164710253E+00
                       8.6674890899E-01  8.3255115271E-01  4.8330876660E-01
                       2.4924151649E-01  6.3318144861E-01  4.6245467245E-01
                       7.4990075212E-01  1.3315724114E-01  3.6926554100E-02
                       6.4339444153E-01  4.9154630745E-01  1.0846592651E+00
                       3.5551020687E-01  9.9176635213E-01  4.1491862607E-01
 
nshiftk 1
shiftk 
0.5 0.5 0.5
#chksymbreak 0
kptopt   1
ngkpt    2 2 2

ecut 30
ixc      -116133
nband    104
nstep    150
diemac   4


# Data set 1 - Refinement of already computed GS WFs       
irdwfk1   0
irdden1   0
iscf1     7
tolvrs1   1.0E-20
nstep1    100

# Data Set 2: Response Function calculation : d/dk 
rfelfd2    2 
rfdir2     1    1    1 

nqpt2      1 
qpt2       0.0  0.0  0.0  

getwfk2   -1 
getden2   -1 

kptopt2    2 

iscf2     -3 

tolwfr2    1.0d-22 

# Data set 3 : Response Function calculation - electric field perturbation, phonons, and strain

rfphon3   1            # Will consider phonon-type perturbation 
rfelfd3   3            # Electric Field
rfstrs3   3            # Strains

rfdir3    1   1   1    # Along all reduced coordinate axis 
rfatpol3  1   26        # All the atoms will be displaced 

nqpt3     1            # One wavevector is to be considered 
qpt3      0.0 0.0 0.0  # This wavevector is q=0 (Gamma) 

kptopt3   2            # Automatic generation of k points, taking 
                       # into account the time-reversal symmetry only 

getwfk3   1            # Read the ground-state wavefunctions 
getddk3   2
                                              
tolvrs3   1.0d-20      # SCF stopping criterion 
                       



# Printing flags
prtden    1
prteig    0
prtwf     1
prtposcar 0
prtcif    0

ecutsm  0.5
            ngfft          72      75      75
pawecutdg  30
pawxcdev   0
