#input for non-centrosymmetric orthorhombic HfO2

ndtset    2

autoparal 1

#Crystal Def.
ntypat   3
natom    26
typat    4*1 4*2 18*3
znucl    57 42 8
acell 3*1

rprim
  1.35334506454954E+01  8.32779161735405E-04 -7.15862382892483E-01
  8.62128002740699E-04  1.32855523631842E+01  8.85196903855859E-04
 -7.05707500325588E-01  8.48256012898952E-04  1.36858304968949E+01

             xred      8.9568647880E-01  8.7573302402E-01  8.3448849381E-01
                       3.1806027817E-01  6.2963299181E-01  1.2715631966E-01
                       1.0466268363E-01  3.7533243212E-01  6.6544801597E-01
                       6.8158368785E-01  1.3024683181E-01  3.7326515502E-01
                       2.0175874028E-01  1.6888679170E-01  2.0546607689E-01
                       6.8951870009E-01  3.3843577936E-01  8.8135427502E-01
                       7.9825850346E-01  6.6949298682E-01  2.9524398750E-01
                       3.1060232392E-01  8.3793912359E-01  6.1863045862E-01
                       4.0221760569E-01  3.1650414018E-01  2.8472579076E-01
                       8.0337438262E-01  1.8052927361E-01  6.9415141489E-01
                       5.9720262568E-01  8.1640603219E-01  2.1681849833E-01
                       1.9737096953E-01  6.8043835092E-01  8.0563084427E-01
                       1.0264211724E+00  1.9031856669E-01  3.5826914544E-01
                       4.5977996015E-01  3.3672069602E-01  7.7169457763E-01
                      -2.7462818342E-02  6.8905262788E-01  1.4098849499E-01
                       5.4108895221E-01  8.3562593111E-01  7.2640484264E-01
                       1.9888874104E-01  9.5651254661E-01  7.2866631275E-02
                       1.6123612635E-01  2.6042694014E-02  7.0020542415E-01
                       8.3978457095E-01  5.2595952304E-01  8.0039565034E-01
                       7.9989564669E-01  4.5743241066E-01  4.2799057208E-01
                       1.3352969207E-01  3.3212930056E-01  1.0178198294E+00
                       8.6805339390E-01  8.3314994173E-01  4.8188663503E-01
                       2.4845903907E-01  6.3196212836E-01  4.6337648252E-01
                       7.5072811872E-01  1.3148781751E-01  3.5726500815E-02
                       6.4477548481E-01  4.9178187727E-01  1.0841669599E+00
                       3.5452494034E-01  9.9224618036E-01  4.1582892305E-01
 
kptopt   1
            ngfft          72      75      75
ngkpt    2 2 2
nshiftk 1
shiftk 
0.5 0.5 0.5
ecut       30
ecutsm  0.5
pawecutdg  30
pawxcdev   0
ixc      -116133
nband    104
diemac   4

# First SCF run       
#irdwfk1   1
nstep1    100
iscf1     7
tolvrs1   1.0E-20

#Refinement using tolwfr
nstep2    250
getwfk2   -1
iscf2     7
tolwfr2   1.0E-20

# Printing flags
prtden    1
prteig    0
prtwf     1
prtposcar 0
prtcif    1
