#input for non-centrosymmetric orthorhombic HfO2

ndtset    1
autoparal 1

#Crystal Def.

nsym     1
ntypat   3
natom    26
typat    4*1 4*2 18*3
znucl    57 42 8

acell 3*1

rprim
  1.32747790636509E+01  4.82785067263187E-04 -7.97509434995114E-03
 -6.78899121437593E-05  1.35988822582615E+01  9.66107554971618E-01
 -8.10941270379578E-03  9.90940923049752E-01  1.36314471030721E+01

             xred   
  8.66892412420619E-01  8.62378928713158E-01  8.14315126327458E-01
  3.65418028575401E-01  6.39660107149426E-01  1.86429920767756E-01
  1.22350807238957E-01  3.30964808229093E-01  6.03814499760698E-01
  6.22688079185588E-01  1.69666100555969E-01  3.96255726528669E-01
  1.62897870652901E-01  1.22576354374894E-01  1.90405936243418E-01
  6.62078852592770E-01  3.77751709154767E-01  8.09751971938011E-01
  8.30715230701940E-01  7.09624216888945E-01  2.98907611143061E-01
  3.30812168742367E-01  7.90832943255116E-01  7.01066514561947E-01
  3.18742668215366E-01  3.10903046014511E-01  3.00352778900407E-01
  8.18856660342877E-01  1.90009113291364E-01  6.97808122536637E-01
  6.84656371825462E-01  7.93706183374709E-01  9.64972732096307E-02
  1.84349469170530E-01  7.06921315078215E-01  9.02892842685263E-01
  9.73179054665059E-01  1.97724837901959E-01  3.35239433957378E-01
  4.72910018101856E-01  3.01557396648854E-01  6.63903471697516E-01
  3.95315306075150E-02  5.69253849077809E-01  3.08947225867487E-01
  5.40818825188262E-01  9.29030902295866E-01  6.91899230875827E-01
  3.71932290955419E-01  9.68015713959491E-01  2.58643844935512E-01
  1.64186143223072E-01 -2.00148071244056E-02  6.33139643443101E-01
  8.70813165376026E-01  5.32293297768352E-01  7.42641924766647E-01
  6.62944370704080E-01  5.21245934945705E-01  3.66432117434482E-01
  1.66364706049978E-01  2.34967537303119E-01  9.59613593628683E-01
  8.08869148160855E-01  8.59826516923085E-01  4.70122150407542E-01
  3.08241712534730E-01  6.40390829019892E-01  5.30083127410016E-01
  6.67390081598912E-01  2.62656199928780E-01  3.94285662088934E-02
  1.71705810864542E-02 -8.68872181212402E-02  1.45235313633963E-01
  5.15189752113640E-01  5.84944183395405E-01  8.56172031138593E-01

kptopt   1
ngkpt    2 2 2
nshiftk 1
shiftk 
0.5 0.5 0.5

ecut       30
pawecutdg  30
pawxcdev   0
ixc      -116133
nband    104
diemac   4

ecutsm  0.5
nstep    100
iscf     7
tolvrs   1.0E-20
ionmov   2
optcell  2
dilatmx  1.04
tolmxf   1e-8
ntime    150
strtarget 3*0.0 3.39893e-05 2*0.0 



# Printing flags
prtden    1
prteig    0
prtwf     1
prtposcar 0
prtcif    1
