#input for non-centrosymmetric orthorhombic HfO2

ndtset    1
autoparal 1

#Crystal Def.

nsym      1
ntypat   3
natom    26
typat    4*1 4*2 18*3
znucl    57 42 8

acell 3*1

rprim
  1.36093109523062E+01 -3.81038758706144E-01  5.54702252794799E-01
 -3.77669720774391E-01  1.32608389422707E+01  7.55361906986163E-02
  5.47115093851925E-01  5.68342980315088E-02  1.36265133434794E+01

             xred     
  8.38670006122569E-01  8.80185416815310E-01  9.13761177362008E-01
  3.79998338809873E-01  6.33312226382461E-01  1.74936201070428E-01
  1.89320360229157E-01  3.46424586556898E-01  6.46769627474398E-01
  6.09877020814177E-01  1.23171710525920E-01  3.42769708086335E-01
  1.90869160753268E-01  1.66525309123905E-01  1.17009115929502E-01
  7.03792180255398E-01  3.29730463710880E-01  8.04632745242325E-01
  8.09613735126773E-01  6.56788128521607E-01  3.81688329177515E-01
  3.02759756447118E-01  8.26774203225763E-01  7.07033295173248E-01
  2.67589939425581E-01  3.20593685930345E-01  3.14858066617238E-01
  8.92391675326430E-01  1.79648618575516E-01  7.31279752382711E-01
  6.68533879370814E-01  8.22427262219430E-01  2.04620398392940E-01
  9.76580284327527E-02  6.87974090339830E-01  7.98609435449263E-01
  9.48363234609006E-01  1.32855792140126E-01  1.82713655879224E-01
  5.31085204422584E-01  3.17157999027727E-01  6.44422791399686E-01
  1.67040486791669E-02  6.90340787077512E-01  2.34184273217074E-01
  4.80083659435685E-01  8.07158035826144E-01  8.60280146990817E-01
  3.30081397461987E-01  9.81075862597356E-01  1.97746449450371E-01
  3.21613437970826E-01  3.39588589944164E-02  5.57547395524287E-01
  7.29066187405703E-01  5.50011327964285E-01  9.15505603115869E-01
  6.42733563413041E-01  4.72344112132209E-01  2.97491715452984E-01
  2.63306711815946E-01  3.81967121628963E-01  9.68341955923139E-01
  7.63765830643182E-01  8.54753942149122E-01  5.38105306271554E-01
  3.52024823712241E-01  6.56266545262988E-01  5.24537489922697E-01
  6.20149937110907E-01  1.75984433979046E-01 -5.53878823499794E-03
  1.70539825838308E-01  3.07307099657403E-02 -1.11247575785282E-01
  8.79408056380951E-01  4.91838769352360E-01  5.57941728515561E-01


kptopt   1
ngkpt    2 2 2
nshiftk 1
shiftk 
0.5 0.5 0.5

ecut       30
pawecutdg  30
pawxcdev   0
ixc      -116133
nband    104
diemac   4

ecutsm  0.5
nstep    100
iscf     7
tolvrs   1.0E-20
ionmov   2
optcell  2
dilatmx  1.04
tolmxf   1e-8
ntime    150
strtarget 3*0.0  2*0.0  -3.39893e-05 



# Printing flags
prtden    1
prteig    0
prtwf     1
prtposcar 0
prtcif    1
