#input for non-centrosymmetric orthorhombic HfO2

ndtset    2

autoparal 1

#Crystal Def.
ntypat   3
natom    26
typat    4*1 4*2 18*3
znucl    57 42 8
acell 3*1

rprim
  1.36086326537679E+01 -3.80663805267975E-01  5.54228297150669E-01
 -3.77268658902644E-01  1.32608872660411E+01  7.50905582481807E-02
  5.46584009847500E-01  5.63754929771554E-02  1.36269544896735E+01

             xred      8.3871114873E-01  8.8013227104E-01  9.1385777882E-01
                       3.7996070260E-01  6.3333252723E-01  1.7495990964E-01
                       1.8929308265E-01  3.4647468041E-01  6.4675692997E-01
                       6.0982631525E-01  1.2320036092E-01  3.4277524604E-01
                       1.9085902012E-01  1.6653238996E-01  1.1700501437E-01
                       7.0374244438E-01  3.2967205845E-01  8.0470850300E-01
                       8.0964538621E-01  6.5677536505E-01  3.8166332387E-01
                       3.0278329067E-01  8.2678231043E-01  7.0703777310E-01
                       2.6761785416E-01  3.2058525215E-01  3.1485055139E-01
                       8.9237336068E-01  1.7964018876E-01  7.3140087368E-01
                       6.6849837683E-01  8.2246221101E-01  2.0463112472E-01
                       9.7678512204E-02  6.8796640349E-01  7.9857236551E-01
                       9.4834278741E-01  1.3287611085E-01  1.8269368389E-01
                       5.3110839311E-01  3.1725502748E-01  6.4440201120E-01
                       1.6674227985E-02  6.9042450322E-01  2.3406640160E-01
                       4.8012183749E-01  8.0707723826E-01  8.6026957977E-01
                       3.3003222724E-01  9.8105256406E-01  1.9779221255E-01
                       3.2168436048E-01  3.3994911694E-02  5.5760053603E-01
                       7.2922734754E-01  5.4996821185E-01  9.1549575938E-01
                       6.4272224617E-01  4.7236141529E-01  2.9745474032E-01
                       2.6322668948E-01  3.8198128913E-01  9.6835182560E-01
                       7.6379352884E-01  8.5468732403E-01  5.3813048466E-01
                       3.5199687470E-01  6.5629299328E-01  5.2450934775E-01
                       6.1993903018E-01  1.7600212709E-01 -5.5081561043E-03
                       1.7056580892E-01  3.0697929173E-02 -1.1123570356E-01
                       8.7957514597E-01  4.9177233573E-01  5.5775788281E-01
 
kptopt   1
            ngfft          72      75      75
ngkpt    2 2 2
nshiftk 1
shiftk 
0.5 0.5 0.5
ecut       30
ecutsm  0.5
pawecutdg  30
pawxcdev   0
ixc      -116133
nband    104
diemac   4

# First SCF run       
#irdwfk1   1
nstep1    100
iscf1     7
tolvrs1   1.0E-20

#Refinement using tolwfr
nstep2    250
getwfk2   -1
iscf2     7
tolwfr2   1.0E-20

# Printing flags
prtden    1
prteig    0
prtwf     1
prtposcar 0
prtcif    1
