#input for non-centrosymmetric orthorhombic HfO2

ndtset    1

autoparal 1

#Crystal Def.
ntypat   3
natom    26
typat    4*1 4*2 18*3
znucl    57 42 8
acell 3*1
nsym 1

rprim
  1.33127156854936E+01 -1.04032963221779E-03  6.22701579622710E-03
 -7.40165044917499E-04  1.35757777681073E+01  6.84820575503976E-01
  6.29032995880898E-03  7.11891060342586E-01  1.35668550998250E+01

xred
  8.69597846733107E-01  8.71413370921606E-01  8.18670719810490E-01
  3.70081300558193E-01  6.27361405191175E-01  1.80637852582127E-01
  1.24371409755155E-01  3.35114530691635E-01  6.04918924311830E-01
  6.23963477230674E-01  1.64656782820360E-01  3.95229405571743E-01
  1.61089325015094E-01  1.19692765084525E-01  1.89265681583060E-01
  6.61541490115723E-01  3.80318295639307E-01  8.10622628190046E-01
  8.31247539853549E-01  7.04562244026257E-01  2.98063071832460E-01
  3.31268904482643E-01  7.94787645377503E-01  7.01971244242478E-01
  3.19194705498204E-01  3.05863076219850E-01  3.04721251878239E-01
  8.19325650680784E-01  1.93901865175569E-01  6.96863377500812E-01
  6.83846925431589E-01  7.84993757121474E-01  9.85985598000340E-02
  1.83581343286603E-01  7.13674682954583E-01  9.01401209068899E-01
  9.73804164400449E-01  2.00119867230572E-01  3.39519502813267E-01
  4.73942531395979E-01  2.99901568111910E-01  6.61151625008292E-01
  4.37926882310658E-02  5.72106962012220E-01  3.01359177543700E-01
  5.43260766619716E-01  9.28352286847189E-01  6.98399167792381E-01
  3.67478064753109E-01  9.63386892196657E-01  2.49462972996680E-01
  1.67364878348970E-01 -1.69832922569523E-02  6.34041978031181E-01
  8.67670368554470E-01  5.37104907286837E-01  7.49299884546652E-01
  6.67851929952303E-01  5.16085003322529E-01  3.66576587811896E-01
  1.63131035369220E-01  2.31245445446904E-01  9.60675502665767E-01
  8.11366437213929E-01  8.58874904970620E-01  4.72934891736270E-01
  3.11746051675859E-01  6.41370146902906E-01  5.26365568977064E-01
  6.62635535543949E-01  2.71278527375227E-01  4.02546036554390E-02
  8.18177084705937E-03 -8.46380348551321E-02  1.43662574298324E-01
  5.08663858471937E-01  5.85454394185603E-01  8.55332035757035E-01



kptopt   1
ngkpt    2 2 2
nshiftk 1
shiftk 
0.5 0.5 0.5

ecut       30
pawecutdg  30
pawxcdev   0
ixc      -116133
nband    104
diemac   4
ecutsm   0.5

# First SCF run       
#irdwfk1   1
nstep    100
iscf     7
tolvrs   1.0E-20
ionmov   2
optcell  2
dilatmx  1.04
tolmxf   1e-10
ntime    150

# Printing flags
prtden    1
prteig    0
prtwf     1
prtposcar 0
prtcif    0
