#input for LaMoX

autoparal 1

#Crystal Def.
ntypat   3
natom    26
typat    4*1 4*2 18*3
znucl    57 42 8
acell 3*1.008 Angstrom

rprim 
7.1547  0.0000  0.0000
0.0000  7.1547  0.0000
0.0000  0.0000  7.1547

xred 
  8.67734492829399E-01  8.92651067602019E-01  8.25134325255099E-01
  3.67734492829399E-01  6.07348932397980E-01  1.74865674744901E-01
  1.56324981424875E-01  3.27417309357413E-01  6.25721910560931E-01
  6.56324981424874E-01  1.72582690642587E-01  3.74278089439068E-01
  1.63385443411722E-01  1.22745985668674E-01  1.88890464096433E-01
  6.63385443411722E-01  3.77254014331326E-01  8.11109535903568E-01
  8.24108937415440E-01  7.07161205768479E-01  2.86916174670127E-01
  3.24108937415439E-01  7.92838794231521E-01  7.13083825329873E-01
  3.30682946767479E-01  3.01415728533268E-01  3.07427676349083E-01
  8.30682946767479E-01  1.98584271466733E-01  6.92572323650917E-01
  6.75260922535145E-01  7.76062060801299E-01  9.82326366162630E-02
  1.75260922535146E-01  7.23937939198701E-01  9.01767363383737E-01
  9.94133744491732E-01  2.23537945113224E-01  3.58689710746217E-01
  4.94133744491732E-01  2.76462054886776E-01  6.41310289253784E-01
  4.07978088044046E-02  5.99539385793713E-01  2.56440263427064E-01
  5.40797808804404E-01  9.00460614206287E-01  7.43559736572936E-01
  3.42063706744408E-01  9.49788384460648E-01  2.32312085860281E-01
  1.77398747403426E-01 -1.83998256894697E-02  6.42299465809154E-01
  8.42063706744408E-01  5.50211615539352E-01  7.67687914139719E-01
  6.77398747403426E-01  5.18399825689470E-01  3.57700534190845E-01
  1.69549898445850E-01  2.26276758331774E-01  9.65939746635488E-01
  8.06855051665569E-01  8.67779050996843E-01  4.73990412222961E-01
  3.06855051665569E-01  6.32220949003157E-01  5.26009587777041E-01
  6.69549898445850E-01  2.73723241668227E-01  3.40602533645113E-02
 -2.33046819386931E-02 -5.17650516935981E-02  1.41878644647416E-01
  4.76695318061306E-01  5.51765051693598E-01  8.58121355352585E-01

#chksymbreak 0
kptopt   1
ngkpt    2 2 2
nshiftk 1
shiftk
0.5 0.5 0.5

#ngfft 72 72 72

ecutsm 0.5
ecut 30
ixc      -116133
nband    104
nstep    150
diemac   4
iscf     7
tolvrs   1.0E-20

ionmov  2
optcell 0
ntime   150
tolmxf  1e-8


# Printing flags
prtden    1
prteig    0
prtwf     1
prtposcar 0
prtcif    0

pawecutdg  30
pawxcdev   0
