#input for non-centrosymmetric orthorhombic HfO2

ndtset    2

autoparal 1

#Crystal Def.
ntypat   3
natom    26
typat    4*1 4*2 18*3
znucl    57 42 8
acell 3*1

rprim

             xred      8.6718575801E-01  9.0122272070E-01  8.3170495195E-01
                       3.6718575801E-01  5.9877727930E-01  1.6829504805E-01
                       1.8431021507E-01  3.2428684451E-01  6.3290901316E-01
                       6.8431021507E-01  1.7571315549E-01  3.6709098684E-01
                       1.6473901734E-01  1.2344738034E-01  1.9149981139E-01
                       6.6473901734E-01  3.7655261966E-01  8.0850018861E-01
                       8.2072924419E-01  7.1112614631E-01  2.8999700715E-01
                       3.2072924419E-01  7.8887385369E-01  7.1000299285E-01
                       3.4194230449E-01  2.9259790831E-01  3.0112451256E-01
                       8.4194230449E-01  2.0740209169E-01  6.9887548744E-01
                       6.6728821054E-01  7.7321716810E-01  1.0227280818E-01
                       1.6728821054E-01  7.2678283190E-01  8.9772719182E-01
                       1.0073309574E+00  2.3818234935E-01  3.6694840589E-01
                       5.0733095744E-01  2.6181765065E-01  6.3305159411E-01
                       3.7914599836E-02  6.1238445091E-01  2.4395057881E-01
                       5.3791459984E-01  8.8761554909E-01  7.5604942119E-01
                       3.2193650113E-01  9.3478755543E-01  2.2472775540E-01
                       1.8206156495E-01 -1.8749374791E-02  6.3604100408E-01
                       8.2193650113E-01  5.6521244457E-01  7.7527224460E-01
                       6.8206156495E-01  5.1874937479E-01  3.6395899592E-01
                       1.7071706728E-01  2.2030360045E-01  9.6547358258E-01
                       8.0587240696E-01  8.6872464263E-01  4.8134553079E-01
                       3.0587240696E-01  6.3127535737E-01  5.1865446921E-01
                       6.7071706728E-01  2.7969639955E-01  3.4526417419E-02
                      -4.7035847259E-02 -3.0294198532E-02  1.5176163158E-01
                       4.5296415274E-01  5.3029419853E-01  8.4823836842E-01
 
kptopt   1
            ngfft          72      75      75
ngkpt    2 2 2
nshiftk 1
ecutsm 0.5
ecut 30
pawecutdg  30
pawxcdev   0
ixc      -116133
nband    104
diemac   4

# First SCF run       
#irdwfk1   1
nstep1    100
iscf1     7
tolvrs1   1.0E-20

#Refinement using tolwfr
nstep2    250
getwfk2   -1
iscf2     7
tolwfr2   1.0E-20

# Printing flags
prtden    1
prteig    0
prtwf     1
prtposcar 0
prtcif    1
