#input for non-centrosymmetric orthorhombic HfO2

ndtset    2

autoparal 1

#Crystal Def.
ntypat   3
natom    104
typat    16*1 16*2 72*3
znucl    57 42 8
acell 3*1

rprim
  2.70995006243847E+01 -3.14457734354743E-01 -8.71016893508395E-02
 -3.16558856182286E-01  2.68399249042135E+01  2.59458104245338E-01
 -4.37624549950678E-02  1.29730783401801E-01  1.35141875818250E+01

 Reduced coordinates (xred)
  4.40741090678073E-01  4.34219079044529E-01  8.46630329882273E-01
  1.55502012639817E-01  3.15126557751469E-01  1.66086909217085E-01
  7.44100961577093E-02  1.70205229975290E-01  6.25852341782557E-01
  3.20441522874174E-01  8.36779956129041E-02  3.78171226005054E-01
  9.15957502611578E-01  4.16690397594478E-01  8.50199297351181E-01
  6.65651171349973E-01  3.39728322924403E-01  1.21892838901011E-01
  5.57363148532740E-01  1.88865469915116E-01  6.58496654342819E-01
  8.31027830424970E-01  4.86463869530392E-02  3.60260448770493E-01
  4.22501520327183E-01  9.34671568345844E-01  8.39176694705194E-01
  1.64062927084958E-01  8.36019516343169E-01  1.10948915287856E-01
  8.28399816382983E-02  6.74399824942581E-01  6.10655568043968E-01
  3.20608925138409E-01  5.60572825389826E-01  3.68341374512533E-01
  9.08804401721019E-01  9.28738603250642E-01  8.55559582442995E-01
  6.39567188530680E-01  8.22416572163507E-01  1.43041761084973E-01
  5.46344084677310E-01  6.81694287970702E-01  6.46266779992078E-01
  8.14618525371539E-01  5.43566588466608E-01  3.30085552023630E-01
  9.53298199408873E-02  6.65865521191067E-02  1.68797315240844E-01
  3.34952968627620E-01  1.65353888898055E-01  8.48855633531017E-01
  4.26769705700940E-01  3.48663194169631E-01  3.17599901128968E-01
  1.65564712684887E-01  4.37858402972618E-01  6.89168709571009E-01
  6.00857754282495E-01  1.03295277473073E-01  2.09352730745817E-01
  8.35330149649012E-01  1.45539528166003E-01  7.93318784843009E-01
  9.25011146817901E-01  3.27006711473884E-01  3.24813475730396E-01
  6.77932170384104E-01  4.41143680224484E-01  6.83828993694852E-01
  8.35915094306828E-02  5.90313851713163E-01  1.47643587301875E-01
  3.13688370193421E-01  6.67680000892556E-01  8.07116743097383E-01
  4.12445678283712E-01  8.33239715042942E-01  3.09639700424715E-01
  1.55602529773138E-01  8.96965162030689E-01  6.51819341748826E-01
  5.83619754015844E-01  5.71065963013689E-01  2.01542064284994E-01
  8.34691307731547E-01  6.62417449229015E-01  8.05889940206807E-01
  8.94377717492595E-01  8.07126804525929E-01  3.34537562909792E-01
  6.67698957605118E-01  9.28914982707975E-01  6.99256548786731E-01
  1.13070236217152E-01  3.30851450361499E-01  7.75171517868063E-01
  1.63554975178783E-01  1.57827070769018E-01  3.19966825109601E-01
  3.52487000504179E-01  4.11298500459536E-01  1.50485330641693E-01
  4.12653778085028E-01  9.12866457533460E-02  6.74461343391200E-01
  5.88099266691488E-01  3.49405588689457E-01  7.90550418615225E-01
  6.83255803315168E-01  1.63507912176767E-01  3.54000951164774E-01
  8.34283767807036E-01  3.90120341760933E-01  1.73814686290101E-01
  9.29721613496379E-01  7.79992035483611E-02  6.63668747622746E-01
  5.81631888398931E-02  8.38379305880759E-01  7.64745050075347E-01
  1.66910960226887E-01  6.53380795266051E-01  2.89032924485624E-01
  3.28167359147602E-01  8.50820378570186E-01  1.17231734517449E-01
  4.00477426990517E-01  5.86386619313085E-01  6.93570901914239E-01
  5.77846629951675E-01  8.41929026152520E-01  7.83752424842564E-01
  6.56682262374848E-01  6.26268061515438E-01  3.75235221745736E-01
  8.70699103048799E-01  9.07426676088904E-01  1.87532033639972E-01
  9.04276239501746E-01  6.63087070626883E-01  5.91622029540670E-01
  8.94914815654322E-02  1.44603421766051E-01  9.72712515579202E-01
  9.93869912406396E-01  7.81606957586852E-02  3.09974764998064E-01
  2.00268272953058E-01  9.92028278844563E-01  2.16437678612483E-01
  4.11539823029605E-01  4.18112143909515E-01  5.14343134278979E-01
  3.51522938014595E-01  2.49941722305267E-01  3.55223275604192E-01
  5.35692131355184E-01  2.84572507810899E-01  3.40957136820675E-01
  3.64950524404414E-01  7.51232355444869E-02  2.35447041785154E-02
  4.21366009896064E-01  2.60886126409898E-01  8.05947976340354E-01
  2.43650605309303E-01  1.46730203958377E-01  6.73339199426430E-01
  2.70151934428536E-01  4.36927769107507E-01  8.18174171435062E-01
  1.96934194439987E-01  4.24355725194406E-01  4.49535227987464E-01
  6.18590034819869E-02  5.11435047729306E-01  7.07950085036548E-01
 -4.27637702204858E-03  3.42642167528996E-01  1.01582233893218E-01
  9.02879772625272E-01  4.11337535959689E-01  5.04727317174873E-01
  8.64370687896663E-01  2.19524301682287E-01  3.69633503688426E-01
  4.98739729332150E-01  8.58139915293272E-02  3.41587926267015E-01
  5.82806880185944E-01  1.76689995318265E-01  1.00915761851235E+00
  6.61025485680666E-01  9.99764448042104E-01  1.58260901720005E-01
  7.57233755790526E-01  3.76853813593424E-01  8.42007926741072E-01
  6.82749632118778E-01  4.07329892190352E-01  4.47397728124659E-01
  5.85802063003631E-01  5.24158422549564E-01  7.28832472300454E-01
  8.41113708291917E-01  9.06088456587419E-02  1.74189692059729E-02
  9.12036514485015E-01  2.46579485608932E-01  7.89395246899724E-01
  7.24957502869707E-01  1.94730114930518E-01  7.58811037954764E-01
  3.16991202606774E-01  6.20233395114385E-01  3.38916962638525E-02
  4.00613940307223E-01  7.60730251850363E-01  7.84776185550173E-01
  2.26827436684308E-01  5.94536833543894E-01  6.40416937408382E-01
  1.34604483068498E-01  4.85897714520202E-01  7.42254895022191E-02
  5.63998973569428E-02  6.63350837847197E-01  9.55514691840435E-01
  9.87645894549647E-01  5.62905621230298E-01  2.93272222307950E-01
  3.85260370404506E-01  9.20574039456991E-01  4.75574954725334E-01
  3.56441489694192E-01  7.26623067710105E-01  3.92563749201396E-01
  4.96445427284249E-01  8.92082215188347E-01  1.21934823886267E-01
  1.12089429362664E-01  3.37887999685615E-03  5.69012660070945E-01
  2.47564736992601E-01  9.30519337741058E-01  8.06096340136760E-01
  1.81065435563112E-01  8.26871372105702E-01  4.57302572960942E-01
  6.86720200331830E-01  5.08122162469512E-01  1.12165319967471E-01
  4.82816466955413E-01  5.78660793396815E-01  3.52570198863050E-01
  5.62669867397065E-01  6.60531117196944E-01  1.03029778562761E+00
  8.64488521245500E-01  5.71404267192633E-01 -2.46539702871303E-02
  8.84847282297607E-01  7.61859450143449E-01  9.15267757212926E-01
  7.16987828359901E-01  6.94243547296659E-01  7.83634039360872E-01
  5.86201484877913E-01  2.26913048788683E-02  7.21836421331065E-01
  7.42855593563616E-01  8.89830295880985E-01  8.92524277964720E-01
  6.89802150749882E-01  8.91646175835851E-01  4.68376492284043E-01
  1.05896015123795E-02  7.69852013908956E-01  3.04304273959534E-01
  8.84093195482463E-01  8.64644674846641E-01  5.49636528069607E-01
  8.05444237998685E-01  7.24345860186483E-01  2.77090233840215E-01
  4.95202510079304E-02 -4.34515553396464E-02  5.06520698454159E-02
  2.66120420466633E-01  2.32664983550050E-01  1.00109060825526E+00
  1.04208124097147E+00  2.95809834074172E-01  4.21193090322907E-01
  7.73063347825502E-01  5.32516604820050E-01  6.61515199757332E-01
  2.12189629197848E-01  7.46438586461287E-01  8.11939618805465E-01
  5.29213417975757E-01  7.83774012316203E-01  3.83750137638255E-01
  5.27056778164366E-01  4.39034333935615E-01  1.47848866238680E-01
 
kptopt   1
            ngfft         144     144      72
ngkpt    1 1 2
nshiftk 1
shiftk 
0.5 0.5 0.5
ecut       30
ecutsm   0.5
pawecutdg  30
pawxcdev   0
ixc      -116133
nband    420
diemac   4

# First SCF run       
#irdwfk1   1
nstep1    100
iscf1     7
tolvrs1   1.0E-20

#Refinement using tolwfr
nstep2    250
getwfk2   -1
iscf2     7
tolwfr2   1.0E-20

# Printing flags
prtden    1
prteig    0
prtwf     1
prtposcar 0
prtcif    1
