#input for non-centrosymmetric orthorhombic HfO2

ndtset    2

autoparal 1

#Crystal Def.
ntypat   3
natom    104
typat    16*1 16*2 72*3
znucl    57 42 8
acell 3*1

rprim
  2.70995018038469E+01 -3.14457767850043E-01 -8.71021995992177E-02
 -3.16558907174254E-01  2.68399245512419E+01  2.59459641607140E-01
 -4.37627023413775E-02  1.29731552180037E-01  1.35141876603978E+01

kptopt   1
            ngfft         144     144      72
ngkpt    1 1 2
nshiftk 1
shiftk 
0.5 0.5 0.5
ecut       30
ecutsm   0.5
pawecutdg  30
pawxcdev   0
ixc      -116133
nband    420
diemac   4

# First SCF run       
#irdwfk1   1
nstep     100
iscf      7
tolvrs    1.0E-20
ionmov    2
optcell   2
dilatmx   1.04
tolmxf    1e-8
ntime     250
strtarget 1.69946e-05 5*0.0

# Printing flags
prtden    1
prteig    0
prtwf     1
prtposcar 0
prtcif    0


xred  4.40741086183444E-01  4.34219089973959E-01  8.46630331960698E-01
  1.55501992407504E-01  3.15126551362384E-01  1.66086840122295E-01
  7.44101175914440E-02  1.70205260972887E-01  6.25852328875984E-01
  3.20441564124092E-01  8.36780084085831E-02  3.78171165997980E-01
  9.15957443294879E-01  4.16690427774345E-01  8.50199252697318E-01
  6.65651160888614E-01  3.39728301402691E-01  1.21892927495423E-01
  5.57363154337883E-01  1.88865476778309E-01  6.58496575595761E-01
  8.31027870509016E-01  4.86463793511694E-02  3.60260380185579E-01
  4.22501517058971E-01  9.34671579242501E-01  8.39176731561590E-01
  1.64062929967082E-01  8.36019514158808E-01  1.10948972427958E-01
  8.28399927014890E-02  6.74399837320671E-01  6.10655633518450E-01
  3.20608906952004E-01  5.60572821479316E-01  3.68341422613765E-01
  9.08804397855332E-01  9.28738639959170E-01  8.55559568935429E-01
  6.39567184526001E-01  8.22416591423663E-01  1.43041833910364E-01
  5.46344105950654E-01  6.81694318448140E-01  6.46266838693773E-01
  8.14618514573213E-01  5.43566593825214E-01  3.30085544683674E-01
  9.53298368859345E-02  6.65865574140517E-02  1.68797314515461E-01
  3.34952988428422E-01  1.65353884165532E-01  8.48855637562139E-01
  4.26769706458301E-01  3.48663199373960E-01  3.17599890748503E-01
  1.65564698844061E-01  4.37858403036954E-01  6.89168719925701E-01
  6.00857816358316E-01  1.03295250092459E-01  2.09352772961001E-01
  8.35330143535536E-01  1.45539543692664E-01  7.93318651783441E-01
  9.25011143119631E-01  3.27006717400297E-01  3.24813419023701E-01
  6.77932154755570E-01  4.41143669048504E-01  6.83829028057196E-01
  8.35914995213119E-02  5.90313826067486E-01  1.47643599874073E-01
  3.13688374784016E-01  6.67679995225168E-01  8.07116787799579E-01
  4.12445661005180E-01  8.33239748433520E-01  3.09639716006379E-01
  1.55602522073482E-01  8.96965174957948E-01  6.51819334052823E-01
  5.83619740553627E-01  5.71065954266399E-01  2.01542095044342E-01
  8.34691309392064E-01  6.62417466295797E-01  8.05889814771221E-01
  8.94377701264170E-01  8.07126775885955E-01  3.34537659309363E-01
  6.67698967397082E-01  9.28914973801337E-01  6.99256604577596E-01
  1.13070227295946E-01  3.30851442430927E-01  7.75171515999476E-01
  1.63554975578810E-01  1.57827084475261E-01  3.19966811384129E-01
  3.52486989293414E-01  4.11298495843769E-01  1.50485336560149E-01
  4.12653796686030E-01  9.12866434892232E-02  6.74461351805344E-01
  5.88099234395911E-01  3.49405581596496E-01  7.90550376701348E-01
  6.83255821227758E-01  1.63507977068115E-01  3.54000911935716E-01
  8.34283738487128E-01  3.90120362220768E-01  1.73814706418805E-01
  9.29721632144339E-01  7.79992517476272E-02  6.63668666806107E-01
  5.81631798276811E-02  8.38379319445120E-01  7.64745022587082E-01
  1.66910937396117E-01  6.53380764111149E-01  2.89032963911618E-01
  3.28167360816438E-01  8.50820448801583E-01  1.17231724394247E-01
  4.00477435255415E-01  5.86386639213633E-01  6.93570891924209E-01
  5.77846637447931E-01  8.41929043403319E-01  7.83752629190766E-01
  6.56682236002152E-01  6.26268069513356E-01  3.75235251040555E-01
  8.70699139819448E-01  9.07426643772421E-01  1.87532050583140E-01
  9.04276251834411E-01  6.63087086891460E-01  5.91621918410540E-01
  8.94914682005263E-02  1.44603440785903E-01  9.72712511226466E-01
  9.93869931534706E-01  7.81606873104049E-02  3.09974740947837E-01
  2.00268283994261E-01  9.92028292200181E-01  2.16437716058978E-01
  4.11539844189915E-01  4.18112133957332E-01  5.14343135113531E-01
  3.51522949005792E-01  2.49941718633478E-01  3.55223266306203E-01
  5.35692115807215E-01  2.84572488814493E-01  3.40957090604117E-01
  3.64950535327144E-01  7.51231984002745E-02  2.35446963119183E-02
  4.21366014455953E-01  2.60886126527096E-01  8.05947963983214E-01
  2.43650624659960E-01  1.46730199156351E-01  6.73339242435647E-01
  2.70151939603000E-01  4.36927729330551E-01  8.18174102799379E-01
  1.96934154114250E-01  4.24355742833513E-01  4.49535237466933E-01
  6.18590086314133E-02  5.11435059648283E-01  7.07950125391021E-01
 -4.27642061633562E-03  3.42642185853085E-01  1.01582182754546E-01
  9.02879783351845E-01  4.11337519215043E-01  5.04727287469645E-01
  8.64370687173766E-01  2.19524302776605E-01  3.69633401156096E-01
  4.98739786705397E-01  8.58139832490858E-02  3.41587952076146E-01
  5.82806953212293E-01  1.76689909002893E-01  1.00915756271634E+00
  6.61025611223853E-01  9.99764419159234E-01  1.58261178865384E-01
  7.57233715549602E-01  3.76853792537647E-01  8.42008000441659E-01
  6.82749598384716E-01  4.07329891514636E-01  4.47397765079193E-01
  5.85802099270065E-01  5.24158442339602E-01  7.28832537980569E-01
  8.41113672241984E-01  9.06088322047136E-02  1.74188325754318E-02
  9.12036492389920E-01  2.46579506270905E-01  7.89395211842388E-01
  7.24957509895031E-01  1.94730137763987E-01  7.58810830669526E-01
  3.16991225840427E-01  6.20233328701720E-01  3.38916997217141E-02
  4.00613937659062E-01  7.60730250707817E-01  7.84776240442319E-01
  2.26827443427979E-01  5.94536844485547E-01  6.40417018525410E-01
  1.34604485464906E-01  4.85897703715620E-01  7.42254605857225E-02
  5.63998610968749E-02  6.63350851491248E-01  9.55514762003637E-01
  9.87645872288104E-01  5.62905561271311E-01  2.93272148693996E-01
  3.85260345461295E-01  9.20574061585216E-01  4.75574970261983E-01
  3.56441444869907E-01  7.26623088673450E-01  3.92563644330430E-01
  4.96445425478222E-01  8.92082264743499E-01  1.21934876651557E-01
  1.12089422237931E-01  3.37888815502204E-03  5.69012608413899E-01
  2.47564724623769E-01  9.30519349661355E-01  8.06096315149979E-01
  1.81065432106127E-01  8.26871339336805E-01  4.57302642477908E-01
  6.86720177841220E-01  5.08122153786932E-01  1.12165367754844E-01
  4.82816453610512E-01  5.78660782177261E-01  3.52570178669602E-01
  5.62669855578293E-01  6.60531098043236E-01  1.03029777027463E+00
  8.64488509635373E-01  5.71404303813482E-01 -2.46540387522467E-02
  8.84847264302580E-01  7.61859477080551E-01  9.15267576688119E-01
  7.16987836918428E-01  6.94243546795882E-01  7.83633795688136E-01
  5.86201523467539E-01  2.26913151629826E-02  7.21836359839043E-01
  7.42855606804591E-01  8.89830357435888E-01  8.92524382115731E-01
  6.89802115175524E-01  8.91646049749360E-01  4.68376641527744E-01
  1.05895987073576E-02  7.69852025850288E-01  3.04304433087935E-01
  8.84093123632570E-01  8.64644676387787E-01  5.49636569007696E-01
  8.05444225507360E-01  7.24345847811896E-01  2.77090185348987E-01
  4.95202765252686E-02 -4.34515514906129E-02  5.06520770492497E-02
  2.66120471782332E-01  2.32664947299446E-01  1.00109071043994E+00
  1.04208123997294E+00  2.95809822977341E-01  4.21193042218361E-01
  7.73063395865338E-01  5.32516545349287E-01  6.61515193842446E-01
  2.12189636561044E-01  7.46438575768492E-01  8.11939781133837E-01
  5.29213377325651E-01  7.83774034665488E-01  3.83750205238948E-01
  5.27056756164635E-01  4.39034303944757E-01  1.47848886240479E-01
  7.70496778880741E-01  1.02818303043579E+00  6.67736398061907E-01
