#input for non-centrosymmetric orthorhombic HfO2

ndtset    2

autoparal 1

#Crystal Def.
ntypat   3
natom    104
typat    16*1 16*2 72*3
znucl    57 42 8
acell 3*1

rprim
  2.70995016919993E+01 -3.14457846889915E-01 -8.71018576244377E-02
 -3.16558985175051E-01  2.68399243063516E+01  2.59459188278853E-01
 -4.37625349879045E-02  1.29731325930543E-01  1.35141875477659E+01

kptopt   1
            ngfft         144     144      72
ngkpt    1 1 2
nshiftk 1
shiftk 
0.5 0.5 0.5
ecut       30
ecutsm   0.5
pawecutdg  30
pawxcdev   0
ixc      -116133
nband    420
diemac   4

# First SCF run       
#irdwfk1   1
nstep     100
iscf      7
tolvrs    1.0E-20
ionmov    2
optcell   2
dilatmx   1.04
tolmxf    1e-8
ntime     250
strtarget 1.69946e-05 5*0.0

# Printing flags
prtden    1
prteig    0
prtwf     1
prtposcar 0
prtcif    0



xred  4.40741085824159E-01  4.34219085284592E-01  8.46630335495924E-01
  1.55501991822414E-01  3.15126548704853E-01  1.66086837431772E-01
  7.44101131007819E-02  1.70205244395318E-01  6.25852320397710E-01
  3.20441551465491E-01  8.36780093441238E-02  3.78171190848339E-01
  9.15957449739874E-01  4.16690427271086E-01  8.50199256074841E-01
  6.65651162818320E-01  3.39728309861404E-01  1.21892912572928E-01
  5.57363145793636E-01  1.88865473593194E-01  6.58496611283358E-01
  8.31027859207365E-01  4.86463820251423E-02  3.60260365046917E-01
  4.22501513794410E-01  9.34671571939225E-01  8.39176717410889E-01
  1.64062927391075E-01  8.36019519886249E-01  1.10948961048160E-01
  8.28399945318974E-02  6.74399841125784E-01  6.10655634992500E-01
  3.20608917599571E-01  5.60572827497605E-01  3.68341419243294E-01
  9.08804404128230E-01  9.28738632083552E-01  8.55559595815195E-01
  6.39567175239283E-01  8.22416587500507E-01  1.43041834053192E-01
  5.46344099172734E-01  6.81694313374888E-01  6.46266831136629E-01
  8.14618515416642E-01  5.43566579771758E-01  3.30085551029647E-01
  9.53298342204352E-02  6.65865553708996E-02  1.68797317835193E-01
  3.34952983453065E-01  1.65353880487307E-01  8.48855641227469E-01
  4.26769708418620E-01  3.48663200046065E-01  3.17599888560869E-01
  1.65564702044475E-01  4.37858405227515E-01  6.89168718666068E-01
  6.00857807435815E-01  1.03295254582155E-01  2.09352758621642E-01
  8.35330145559196E-01  1.45539543153599E-01  7.93318679104678E-01
  9.25011144017687E-01  3.27006716767729E-01  3.24813421134237E-01
  6.77932159623985E-01  4.41143670308804E-01  6.83829026650746E-01
  8.35914995206939E-02  5.90313828731093E-01  1.47643596133882E-01
  3.13688376336760E-01  6.67679991288894E-01  8.07116789029152E-01
  4.12445664974626E-01  8.33239744475143E-01  3.09639702061346E-01
  1.55602522254459E-01  8.96965173971148E-01  6.51819340784672E-01
  5.83619736541578E-01  5.71065957473240E-01  2.01542091167484E-01
  8.34691306169199E-01  6.62417462064284E-01  8.05889834243433E-01
  8.94377705090129E-01  8.07126783843173E-01  3.34537644519629E-01
  6.67698972109522E-01  9.28914978923558E-01  6.99256597994071E-01
  1.13070227986067E-01  3.30851445032094E-01  7.75171521494394E-01
  1.63554990441321E-01  1.57827074809538E-01  3.19966820230255E-01
  3.52486988074824E-01  4.11298502071073E-01  1.50485340712193E-01
  4.12653793344951E-01  9.12866502187223E-02  6.74461340950865E-01
  5.88099246151129E-01  3.49405589606041E-01  7.90550378166481E-01
  6.83255819041864E-01  1.63507960062725E-01  3.54000915394613E-01
  8.34283746771435E-01  3.90120356835892E-01  1.73814700319451E-01
  9.29721621600455E-01  7.79992387290377E-02  6.63668686058607E-01
  5.81631785599240E-02  8.38379322250102E-01  7.64745036690764E-01
  1.66910937542388E-01  6.53380766206464E-01  2.89032961264252E-01
  3.28167357355587E-01  8.50820440789197E-01  1.17231717318106E-01
  4.00477429817787E-01  5.86386628465889E-01  6.93570883405642E-01
  5.77846645135366E-01  8.41929036458505E-01  7.83752604761379E-01
  6.56682238014030E-01  6.26268066281283E-01  3.75235236926776E-01
  8.70699134414008E-01  9.07426647265825E-01  1.87532030008441E-01
  9.04276248525693E-01  6.63087086764079E-01  5.91621932290860E-01
  8.94914768118181E-02  1.44603438342444E-01  9.72712519780142E-01
  9.93869923910970E-01  7.81606888072691E-02  3.09974740638561E-01
  2.00268277453142E-01  9.92028285432280E-01  2.16437699885537E-01
  4.11539834857045E-01  4.18112139068574E-01  5.14343130553635E-01
  3.51522949204420E-01  2.49941721466748E-01  3.55223280432475E-01
  5.35692118671126E-01  2.84572485520548E-01  3.40957098532861E-01
  3.64950541778670E-01  7.51232053831080E-02  2.35447073349201E-02
  4.21366011652755E-01  2.60886123661361E-01  8.05947965337413E-01
  2.43650622716530E-01  1.46730205750602E-01  6.73339221113570E-01
  2.70151939880765E-01  4.36927736039331E-01  8.18174119790298E-01
  1.96934160261690E-01  4.24355742353733E-01  4.49535231082506E-01
  6.18590037976848E-02  5.11435055151060E-01  7.07950120365153E-01
 -4.27639829823926E-03  3.42642184232033E-01  1.01582176049811E-01
  9.02879784181924E-01  4.11337520290626E-01  5.04727306958794E-01
  8.64370684750449E-01  2.19524302465118E-01  3.69633425365503E-01
  4.98739780767365E-01  8.58139847409444E-02  3.41587945509804E-01
  5.82806940208234E-01  1.76689927834335E-01  1.00915756472459E+00
  6.61025599356799E-01  9.99764420798570E-01  1.58261163012708E-01
  7.57233719144598E-01  3.76853787817159E-01  8.42007995851162E-01
  6.82749596528387E-01  4.07329888204291E-01  4.47397760332354E-01
  5.85802095850789E-01  5.24158442040947E-01  7.28832520114696E-01
  8.41113679142787E-01  9.06088310212011E-02  1.74188621379019E-02
  9.12036497644472E-01  2.46579508127259E-01  7.89395211331588E-01
  7.24957509972553E-01  1.94730129810205E-01  7.58810854087907E-01
  3.16991226421373E-01  6.20233339183978E-01  3.38917127631562E-02
  4.00613934064965E-01  7.60730256335633E-01  7.84776232971415E-01
  2.26827446051088E-01  5.94536845599245E-01  6.40416990102066E-01
  1.34604490191177E-01  4.85897708207709E-01  7.42254488282910E-02
  5.63998708270403E-02  6.63350846815341E-01  9.55514742495453E-01
  9.87645873606499E-01  5.62905573614068E-01  2.93272166813334E-01
  3.85260348076043E-01  9.20574054007996E-01  4.75574970106881E-01
  3.56441458035807E-01  7.26623087539940E-01  3.92563663573306E-01
  4.96445431071186E-01  8.92082258367045E-01  1.21934880005908E-01
  1.12089421977054E-01  3.37888688654166E-03  5.69012614940376E-01
  2.47564725898769E-01  9.30519346201042E-01  8.06096324800887E-01
  1.81065436063320E-01  8.26871352900528E-01  4.57302627893866E-01
  6.86720176799717E-01  5.08122154245861E-01  1.12165362865243E-01
  4.82816446746914E-01  5.78660784008741E-01  3.52570190509736E-01
  5.62669863964501E-01  6.60531106566250E-01  1.03029777633847E+00
  8.64488508564448E-01  5.71404298259001E-01 -2.46540165219464E-02
  8.84847265021161E-01  7.61859474808459E-01  9.15267601927009E-01
  7.16987833949941E-01  6.94243545812750E-01  7.83633826331729E-01
  5.86201516417251E-01  2.26913182119686E-02  7.21836359057882E-01
  7.42855599122988E-01  8.89830340846617E-01  8.92524377014206E-01
  6.89802116607692E-01  8.91646066578287E-01  4.68376615210609E-01
  1.05895971467213E-02  7.69852017507127E-01  3.04304408080704E-01
  8.84093136758953E-01  8.64644678740678E-01  5.49636570216984E-01
  8.05444232682202E-01  7.24345855530117E-01  2.77090175251497E-01
  4.95202785708635E-02 -4.34515538106812E-02  5.06520686773863E-02
  2.66120459553277E-01  2.32664953264722E-01  1.00109068978454E+00
  1.04208123195529E+00  2.95809834881779E-01  4.21193043032649E-01
  7.73063385347469E-01  5.32516563378372E-01  6.61515189128145E-01
  2.12189637108675E-01  7.46438573434327E-01  8.11939748216484E-01
  5.29213379832370E-01  7.83774023774981E-01  3.83750203348302E-01
  5.27056766972598E-01  4.39034313700700E-01  1.47848873921741E-01
  7.70496776680373E-01  1.02818302814428E+00  6.67736414328752E-01
