#input for non-centrosymmetric orthorhombic HfO2

ndtset    2

autoparal 1

#Crystal Def.
ntypat   3
natom    104
typat    16*1 16*2 72*3
znucl    57 42 8
acell 3*1

rprim
  2.70995003218094E+01 -3.14456995239644E-01 -8.71004326245619E-02
 -3.16558106147954E-01  2.68399257173338E+01  2.59455925414042E-01
 -4.37618381806998E-02  1.29729700408511E-01  1.35141871588121E+01

             xred      4.4074111692E-01  4.3421906284E-01  8.4663035112E-01
                       1.5550202984E-01  3.1512654594E-01  1.6608704124E-01
                       7.4410065458E-02  1.7020520632E-01  6.2585242723E-01
                       3.2044153275E-01  8.3677963253E-02  3.7817120732E-01
                       9.1595759641E-01  4.1669037096E-01  8.5019943260E-01
                       6.6565125111E-01  3.3972828776E-01  1.2189277166E-01
                       5.5736315553E-01  1.8886551546E-01  6.5849657380E-01
                       8.3102783110E-01  4.8646400564E-02  3.6026058927E-01
                       4.2250148246E-01  9.3467155953E-01  8.3917653714E-01
                       1.6406288362E-01  8.3601949435E-01  1.1094894696E-01
                       8.2839952009E-02  6.7439978971E-01  6.1065565932E-01
                       3.2060892820E-01  5.6057275629E-01  3.6834140165E-01
                       9.0880442939E-01  9.2873863059E-01  8.5555961015E-01
                       6.3956722382E-01  8.2241656581E-01  1.4304135363E-01
                       5.4634402876E-01  6.8169423211E-01  6.4626657833E-01
                       8.1461854045E-01  5.4356658533E-01  3.3008564902E-01
                       9.5329816251E-02  6.6586551046E-02  1.6879738950E-01
                       3.3495297300E-01  1.6535389041E-01  8.4885558355E-01
                       4.2676979149E-01  3.4866316336E-01  3.1759990410E-01
                       1.6556472357E-01  4.3785839487E-01  6.8916883214E-01
                       6.0085756274E-01  1.0329532893E-01  2.0935235832E-01
                       8.3533010340E-01  1.4553955232E-01  7.9331897018E-01
                       9.2501115339E-01  3.2700670864E-01  3.2481362676E-01
                       6.7793220787E-01  4.4114371716E-01  6.8382901221E-01
                       8.3591523130E-02  5.9031387006E-01  1.4764372812E-01
                       3.1368836463E-01  6.6767997040E-01  8.0711678286E-01
                       4.1244573779E-01  8.3323962510E-01  3.0963965591E-01
                       1.5560253889E-01  8.9696512955E-01  6.5181935213E-01
                       5.8361978371E-01  5.7106590609E-01  2.0154204728E-01
                       8.3469132208E-01  6.6241745730E-01  8.0589012187E-01
                       8.9437767125E-01  8.0712684587E-01  3.3453755446E-01
                       6.6769894718E-01  9.2891511916E-01  6.9925620741E-01
                       1.1307020340E-01  3.3085147217E-01  7.7517164061E-01
                       1.6355499316E-01  1.5782706800E-01  3.1996685253E-01
                       3.5248707329E-01  4.1129850351E-01  1.5048540329E-01
                       4.1265378047E-01  9.1286639926E-02  6.7446128653E-01
                       5.8809931192E-01  3.4940561327E-01  7.9055033078E-01
                       6.8325584208E-01  1.6350765684E-01  3.5400066497E-01
                       8.3428380487E-01  3.9012033913E-01  1.7381478077E-01
                       9.2972160592E-01  7.7999205415E-02  6.6366887404E-01
                       5.8163167965E-02  8.3837929820E-01  7.6474501296E-01
                       1.6691099508E-01  6.5338080206E-01  2.8903301381E-01
                       3.2816728813E-01  8.5082030714E-01  1.1723195338E-01
                       4.0047740781E-01  5.8638657817E-01  6.9357088065E-01
                       5.7784667372E-01  8.4192906750E-01  7.8375170131E-01
                       6.5668226930E-01  6.2626798831E-01  3.7523526333E-01
                       8.7069900559E-01  9.0742668377E-01  1.8753199240E-01
                       9.0427622512E-01  6.6308709913E-01  5.9162215831E-01
                       8.9491454684E-02  1.4460339708E-01  9.7271258060E-01
                       9.9386992736E-01  7.8160717245E-02  3.0997493794E-01
                       2.0026825819E-01  9.9202826817E-01  2.1643767345E-01
                       4.1153980451E-01  4.1811206661E-01  5.1434318766E-01
                       3.5152303769E-01  2.4994166858E-01  3.5522306804E-01
                       5.3569223471E-01  2.8457249097E-01  3.4095732173E-01
                       3.6495051062E-01  7.5123220838E-02  2.3544628607E-02
                       4.2136597928E-01  2.6088614538E-01  8.0594783330E-01
                       2.4365060652E-01  1.4673018802E-01  6.7333918672E-01
                       2.7015193946E-01  4.3692775022E-01  8.1817428491E-01
                       1.9693421552E-01  4.2435566907E-01  4.4953534812E-01
                       6.1859010150E-02  5.1143504595E-01  7.0795024958E-01
                      -4.2763498170E-03  3.4264212749E-01  1.0158239024E-01
                       9.0287979245E-01  4.1133757460E-01  5.0472743011E-01
                       8.6437065295E-01  2.1952433247E-01  3.6963362798E-01
                       4.9873961415E-01  8.5813998691E-02  3.4158779819E-01
                       5.8280659908E-01  1.7669024150E-01  1.0091575848E+00
                       6.6102488798E-01  9.9976445331E-01  1.5825939350E-01
                       7.5723382002E-01  3.7685388511E-01  8.4200791257E-01
                       6.8274971801E-01  4.0732993381E-01  4.4739772471E-01
                       5.8580205531E-01  5.2415842828E-01  7.2883248856E-01
                       8.4111372170E-01  9.0608848892E-02  1.7419119829E-02
                       9.1203651927E-01  2.4657947572E-01  7.8939530525E-01
                       7.2495745784E-01  1.9473022619E-01  7.5881157288E-01
                       3.1699119386E-01  6.2023336081E-01  3.3891721904E-02
                       4.0061393987E-01  7.6073020981E-01  7.8477626785E-01
                       2.2682742579E-01  5.9453679293E-01  6.4041699876E-01
                       1.3460446890E-01  4.8589770418E-01  7.4225652892E-02
                       5.6399926618E-02  6.6335085809E-01  9.5551484522E-01
                       9.8764593895E-01  5.6290571374E-01  2.9327251245E-01
                       3.8526047574E-01  9.2057398353E-01  4.7557492825E-01
                       3.5644165628E-01  7.2662296767E-01  3.9256388797E-01
                       4.9644535661E-01  8.9208192804E-01  1.2193443005E-01
                       1.1208945841E-01  3.3788469592E-03  5.6901267724E-01
                       2.4756474465E-01  9.3051929977E-01  8.0609635896E-01
                       1.8106547747E-01  8.2687133814E-01  4.5730258952E-01
                       6.8672023130E-01  5.0812213743E-01  1.1216523613E-01
                       4.8281648297E-01  5.7866070605E-01  3.5257020533E-01
                       5.6266985302E-01  6.6053104440E-01  1.0302978010E+00
                       8.6448860689E-01  5.7140427067E-01 -2.4653861556E-02
                       8.8484731636E-01  7.6185946373E-01  9.1526792582E-01
                       7.1698783068E-01  6.9424356093E-01  7.8363445857E-01
                       5.8620147035E-01  2.2691395725E-02  7.2183641712E-01
                       7.4285561786E-01  8.8983029727E-01  8.9252374830E-01
                       6.8980225395E-01  8.9164673800E-01  4.6837582140E-01
                       1.0589574200E-02  7.6985208706E-01  3.0430433828E-01
                       8.8409313781E-01  8.6464472936E-01  5.4963652972E-01
                       8.0544421101E-01  7.2434586569E-01  2.7709033543E-01
                       4.9520222850E-02 -4.3451557869E-02  5.0652156226E-02
                       2.6612042510E-01  2.3266499380E-01  1.0010905895E+00
                       1.0420812291E+00  2.9580981088E-01  4.2119326423E-01
                       7.7306332902E-01  5.3251669170E-01  6.6151529064E-01
                       2.1218962755E-01  7.4643856596E-01  8.1193965099E-01
                       5.2921356780E-01  7.8377402760E-01  3.8375001442E-01
                       5.2705684645E-01  4.3903422498E-01  1.4784890599E-01
                       7.7049671887E-01  1.0281832693E+00  6.6773658502E-01
 
kptopt   1
            ngfft         144     144      72
ngkpt    1 1 2
nshiftk 1
shiftk 
0.5 0.5 0.5
ecut       30
ecutsm   0.5
pawecutdg  30
pawxcdev   0
ixc      -116133
nband    420
diemac   4

# First SCF run       
#irdwfk1   1
nstep1    100
iscf1     7
tolvrs1   1.0E-20

#Refinement using tolwfr
nstep2    250
getwfk2   -1
iscf2     7
tolwfr2   1.0E-20

# Printing flags
prtden    1
prteig    0
prtwf     1
prtposcar 0
prtcif    1
