#input for non-centrosymmetric orthorhombic HfO2

ndtset    2

autoparal 1

#Crystal Def.
ntypat   3
natom    26
typat    4*1 4*2 18*3
znucl    57 42 8
acell 3*1

rprim
  1.35623266737014E+01 -5.59588958555259E-01  2.30056411020777E-03
 -5.84065002532142E-01  1.35594695481516E+01  3.13068254280901E-03
  1.33786838141258E-03  3.37219576745589E-03  1.33178957525597E+01

             xred      8.3659158280E-01  8.9402672802E-01  8.7496551393E-01
                       3.7528066075E-01  6.7981741062E-01  1.3003464310E-01
                       1.2482148814E-01  3.2046061817E-01  6.2966443472E-01
                       6.6356075006E-01  1.0601935700E-01  3.7483625813E-01
                       2.0365590002E-01  2.0331420697E-01  1.6857710384E-01
                       6.1895769126E-01  3.1091877141E-01  8.3826275739E-01
                       8.8102835718E-01  6.8901296584E-01  3.3887853986E-01
                       2.9642640934E-01  7.9672459018E-01  6.6918524249E-01
                       2.8416226201E-01  4.0114551660E-01  3.1628294118E-01
                       8.0484278308E-01  1.9457452633E-01  6.8031906820E-01
                       6.9517058738E-01  8.0529245279E-01  1.8061240317E-01
                       2.1543518741E-01  5.9913164166E-01  8.1721269422E-01
                       1.0157203277E+00  1.3600089396E-01  3.3154064090E-01
                       4.6169725478E-01  2.5168283916E-01  6.3305520497E-01
                       3.8398526937E-02  7.4861052774E-01  1.3377888137E-01
                       4.8412404107E-01  8.6450793020E-01  8.3214466979E-01
                       3.5853279623E-01  1.0258367138E+00  1.8838046552E-01
                       1.4148248154E-01 -2.5774913729E-02  6.8743486667E-01
                       7.2736932911E-01  5.3932817554E-01  8.3740733427E-01
                       7.7266735359E-01  4.6057248992E-01  3.3794271920E-01
                       7.2204700033E-02  2.0162478514E-01  9.5555673241E-01
                       7.9895003326E-01  8.4057873994E-01  5.2580987113E-01
                       4.2805620907E-01  7.9729768406E-01  4.5634882010E-01
                       7.0097923494E-01  1.5945061043E-01  2.5410089267E-02
                       4.1477102090E-01  3.5523957977E-01  9.9287721857E-01
                       1.0851130313E+00  6.4460515850E-01  4.9348088560E-01
 
kptopt   1
            ngfft          72      75      75
ngkpt    2 2 2
nshiftk 1
shiftk 
0.5 0.5 0.5
ecut       30
ecutsm  0.5
pawecutdg  30
pawxcdev   0
ixc      -116133
nband    104
diemac   4

# First SCF run       
#irdwfk1   1
nstep1    100
iscf1     7
tolvrs1   1.0E-20

#Refinement using tolwfr
nstep2    250
getwfk2   -1
iscf2     7
tolwfr2   1.0E-20

# Printing flags
prtden    1
prteig    0
prtwf     1
prtposcar 0
prtcif    1
