#input for KTaO3

ndtset    3

autoparal 1

#Crystal Def.
ntypat   3
natom    26
typat    4*1 4*2 18*3
znucl    57 42 8
acell 3*1


rprim
  1.33056841522527E+01  2.53945009597829E-02  1.58235467440083E-01
  1.74353774375564E-02  1.35720602343942E+01 -6.73772121293386E-01
  1.60070490394015E-01 -6.97782818584414E-01  1.35816346163740E+01

             xred      8.7466474667E-01  8.3234764933E-01  8.9352289676E-01
                       3.7657035150E-01  6.6307392460E-01  1.0464846605E-01
                       1.3927550396E-01  3.6288144513E-01  6.8495157527E-01
                       6.2425742526E-01  1.1850813094E-01  3.2309515634E-01
                       1.6696036370E-01  2.0378741836E-01  2.0256020784E-01
                       6.7125291842E-01  2.9421207335E-01  7.9802183505E-01
                       8.3917357967E-01  6.1882017497E-01  3.1161801489E-01
                       3.3743767213E-01  8.8057137933E-01  6.9008839694E-01
                       3.1642974599E-01  2.8256699777E-01  3.9782132164E-01
                       8.1571630714E-01  2.0813278035E-01  5.9584536728E-01
                       6.7961472220E-01  8.0240966389E-01  1.8831186403E-01
                       1.8210570735E-01  6.9031755231E-01  7.9544279225E-01
                       9.5248145559E-01  7.6149379540E-02  2.0370450873E-01
                       4.6212939110E-01  4.3486742946E-01  8.0729678038E-01
                       2.6848241555E-02  7.0079666238E-01  1.5728622005E-01
                       5.2506159008E-01  8.0302828802E-01  8.3554157948E-01
                       3.2866429670E-01  1.0137864937E+00  1.3105800862E-01
                       1.2673137094E-01  3.4287857631E-02  7.5568355125E-01
                       8.3826095484E-01  4.7984052460E-01  8.6131841100E-01
                       6.3644244251E-01  4.6109372363E-01  2.5471057337E-01
                       1.8862505626E-01  3.5801815330E-01  1.0275009755E+00
                       8.2765349468E-01  7.4010679360E-01  5.3536412642E-01
                       3.4639857813E-01  7.8248096627E-01  4.5640322908E-01
                       6.8867484428E-01  1.4068209224E-01 -2.6322583873E-02
                       9.9612170367E-01  4.2169857835E-01  3.6278954492E-01
                       4.8244753561E-01  1.0955338669E+00  6.5173718080E-01
 
nshiftk 1
shiftk 
0.5 0.5 0.5
#chksymbreak 0
kptopt   1
ngkpt    2 2 2

ecut 30
ixc      -116133
nband    104
nstep    150
diemac   4


# Data set 1 - Refinement of already computed GS WFs       
irdwfk1   0
irdden1   0
iscf1     7
tolvrs1   1.0E-20
nstep1    100

# Data Set 2: Response Function calculation : d/dk 
rfelfd2    2 
rfdir2     1    1    1 

nqpt2      1 
qpt2       0.0  0.0  0.0  

getwfk2   -1 
getden2   -1 

kptopt2    2 

iscf2     -3 

tolwfr2    1.0d-22 

# Data set 3 : Response Function calculation - electric field perturbation, phonons, and strain

rfphon3   1            # Will consider phonon-type perturbation 
rfelfd3   3            # Electric Field
rfstrs3   3            # Strains

rfdir3    1   1   1    # Along all reduced coordinate axis 
rfatpol3  1   26        # All the atoms will be displaced 

nqpt3     1            # One wavevector is to be considered 
qpt3      0.0 0.0 0.0  # This wavevector is q=0 (Gamma) 

kptopt3   2            # Automatic generation of k points, taking 
                       # into account the time-reversal symmetry only 

getwfk3   1            # Read the ground-state wavefunctions 
getddk3   2
                                              
tolvrs3   1.0d-20      # SCF stopping criterion 
                       



# Printing flags
prtden    1
prteig    0
prtwf     1
prtposcar 0
prtcif    0

ecutsm  0.5
            ngfft          72      75      75
pawecutdg  30
pawxcdev   0
