#input for non-centrosymmetric orthorhombic HfO2

ndtset    1
autoparal 1

#Crystal Def.

nsym      1
ntypat   3
natom    26
typat    4*1 4*2 18*3
znucl    57 42 8

acell 3*1

rprim
  1.35752316379123E+01 -1.68333077487949E-01 -6.71824445996767E-01
 -1.66403956729861E-01  1.33051549669404E+01 -2.45280969654017E-02
 -6.69366074952507E-01 -1.62545267395861E-02  1.35787919782025E+01

xred      
  8.95384061835758E-01  8.76252254788489E-01  8.37616356227912E-01
  3.14979462459346E-01  6.39044747387298E-01  1.37518895113273E-01
  1.07410666253514E-01  3.73628274575483E-01  6.67879965821891E-01
  6.75304793064075E-01  1.23558087996388E-01  3.85389456398132E-01
  2.01378679703645E-01  1.70652067492890E-01  2.05661706476903E-01
  6.88817767151460E-01  3.40114032223583E-01  8.81821030963146E-01
  7.97598446753446E-01  6.67623953007194E-01  2.97126026486465E-01
  3.09603290019564E-01  8.36753818462662E-01  6.19137183957336E-01
  4.04040327018700E-01  3.15158905223468E-01  2.90876253235996E-01
  8.13841494235195E-01  1.79547700853519E-01  6.98887185687352E-01
  6.02042710650495E-01  8.17064039231291E-01  2.20397615553013E-01
  2.06513431132844E-01  6.81433060562853E-01  8.09616592254723E-01
  1.02532007961109E+00  1.89234994190114E-01  3.58986880345341E-01
  4.66213763033500E-01  3.26753779071669E-01  7.58360346733878E-01
 -2.77998648427268E-02  6.88026879714739E-01  1.41716821191273E-01
  5.44629170575802E-01  8.47914527843524E-01  7.13560678976627E-01
  1.91576223084554E-01  9.61582202089789E-01  6.47381507091061E-02
  1.64935223526616E-01  2.44143485138970E-02  6.97916550918435E-01
  8.44056330149192E-01  5.27057053271851E-01  7.98391859463101E-01
  7.93912153036499E-01  4.52211234973195E-01  4.22444529669354E-01
  1.39190187547315E-01  3.37746474968012E-01  1.01988658591024E+00
  8.71021517099361E-01  8.28249705698739E-01  4.86967401565943E-01
  2.43873334770076E-01  6.26075485184958E-01  4.65389881186468E-01
  7.44186011367846E-01  1.38307106852214E-01  4.00179604306194E-02
  6.36141854813650E-01  4.99225442753336E-01  1.07598451340794E+00
  3.45828885963139E-01  9.82369823015607E-01  4.03709571321498E-01



kptopt   1
            ngfft          72      75      75

ngkpt    2 2 2
nshiftk 1
shiftk 
0.5 0.5 0.5

ecut       30
pawecutdg  30
pawxcdev   0
ixc      -116133
nband    104
diemac   4

ecutsm  0.5
nstep    100
iscf     7
tolvrs   1.0E-20
ionmov   2
optcell  2
dilatmx  1.04
tolmxf   1e-8
ntime    150
strtarget 5*0.0 -1.69946e-05 



# Printing flags
prtden    1
prteig    0
prtwf     1
prtposcar 0
prtcif    1
