#input for non-centrosymmetric orthorhombic HfO2

ndtset    2

autoparal 1

#Crystal Def.
ntypat   3
natom    26
typat    4*1 4*2 18*3
znucl    57 42 8
acell 3*1

rprim
  1.33254059471953E+01 -7.21400402785778E-04  2.93985272824127E-03
 -5.87411165901239E-04  1.35223662172325E+01  6.80525951609422E-01
  2.95463247837487E-03  7.03947547463053E-01  1.35837013289173E+01

             xred      8.6956628530E-01  8.7127011431E-01  8.1911335955E-01
                       3.6968802413E-01  6.2814288254E-01  1.8052762223E-01
                       1.2415211173E-01  3.3550648019E-01  6.0505082874E-01
                       6.2383370699E-01  1.6434903451E-01  3.9499452388E-01
                       1.6097325613E-01  1.2014614995E-01  1.8933022951E-01
                       6.6133911943E-01  3.7989440540E-01  8.1054004144E-01
                       8.3138502168E-01  7.0457107331E-01  2.9786617826E-01
                       3.3147235878E-01  7.9491324880E-01  7.0223441976E-01
                       3.1904800957E-01  3.0608521027E-01  3.0504290779E-01
                       8.1918573842E-01  1.9384656417E-01  6.9582192201E-01
                       6.8387480654E-01  7.8631383913E-01  9.9039543385E-02
                       1.8363968477E-01  7.1293246160E-01  9.0096973784E-01
                       9.7374144100E-01  2.0006227007E-01  3.3931030957E-01
                       4.7382254975E-01  2.9982444581E-01  6.6111022542E-01
                       4.3714710910E-02  5.7149649030E-01  3.0191122039E-01
                       5.4352157232E-01  9.2854783102E-01  6.9808598917E-01
                       3.6734435408E-01  9.6310024906E-01  2.4953602573E-01
                       1.6750982712E-01 -1.6270803053E-02  6.3458997204E-01
                       8.6736949443E-01  5.3739483682E-01  7.4956718379E-01
                       6.6763330661E-01  5.1567388942E-01  3.6584259531E-01
                       1.6269652766E-01  2.3207087273E-01  9.6106604419E-01
                       8.1187543586E-01  8.5890747808E-01  4.7306008509E-01
                       3.1207245350E-01  6.4131018347E-01  5.2644413070E-01
                       6.6283914223E-01  2.6960207812E-01  3.9467604155E-02
                       8.7819876023E-03 -8.5453169826E-02  1.4349030791E-01
                       5.0891907350E-01  5.8576188379E-01  8.5598699212E-01
 
kptopt   1
            ngfft          72      75      75
ngkpt    2 2 2
nshiftk 1
shiftk 
0.5 0.5 0.5
ecut       30
ecutsm  0.5
pawecutdg  30
pawxcdev   0
ixc      -116133
nband    104
diemac   4

# First SCF run       
#irdwfk1   1
nstep1    100
iscf1     7
tolvrs1   1.0E-20

#Refinement using tolwfr
nstep2    250
getwfk2   -1
iscf2     7
tolwfr2   1.0E-20

# Printing flags
prtden    1
prteig    0
prtwf     1
prtposcar 0
prtcif    1
