#input for non-centrosymmetric orthorhombic HfO2

ndtset    1
nsym      1
autoparal 1

#Crystal Def.
ntypat   3
natom    26
typat    4*1 4*2 18*3
znucl    57 42 8
acell 3*1

rprim
  1.33254052934915E+01 -7.20824791288913E-04  2.93866778912040E-03
 -5.86887207503619E-04  1.35223673654411E+01  6.80524761617831E-01
  2.95345487597968E-03  7.03946435237454E-01  1.35837008654030E+01

xred      
  8.69566428803427E-01  8.71270204234911E-01  8.19113421245258E-01
  3.69687948303619E-01  6.28142861097728E-01  1.80527640195946E-01
  1.24152135465793E-01  3.35506466452797E-01  6.05050889067375E-01
  6.23833667435736E-01  1.64349054030932E-01  3.94994644859763E-01
  1.60973144756678E-01  1.20146210628296E-01  1.89330146134514E-01
  6.61339152014426E-01  3.79894426699811E-01  8.10540160307862E-01
  8.31384958128576E-01  7.04571015436389E-01  2.97866127343747E-01
  3.31472437478199E-01  7.94913171060092E-01  7.02234445377788E-01
  3.19047930729062E-01  3.06085250066682E-01  3.05042983161447E-01
  8.19185728154244E-01  1.93846582232909E-01  6.95821938044684E-01
  6.83874743367593E-01  7.86313747415360E-01  9.90394750258924E-02
  1.83639642688624E-01  7.12932341486679E-01  9.00969650542195E-01
  9.73741368933193E-01  2.00062297936428E-01  3.39310300943977E-01
  4.73822526916119E-01  2.99824383948401E-01  6.61110376766111E-01
  4.37145966255850E-02  5.71496394755606E-01  3.01910838450035E-01
  5.43521755169042E-01  9.28547623532787E-01  6.98085898333823E-01
  3.67344236038666E-01  9.63100341292586E-01  2.49536099315481E-01
  1.67510050671446E-01 -1.62707427160316E-02  6.34590212630232E-01
  8.67369389500475E-01  5.37394839015772E-01  7.49567086546605E-01
  6.67633185545015E-01  5.15673992648920E-01  3.65842701715640E-01
  1.62696539403664E-01  2.32070887835625E-01  9.61065926689837E-01
  8.11875770835082E-01  8.58907548451448E-01  4.73059977605541E-01
  3.12072268069517E-01  6.41310179295564E-01  5.26444094020953E-01
  6.62839435929411E-01  2.69602205799836E-01  3.94677568562532E-02
  8.78194208931672E-03 -8.54530828532377E-02  1.43490150695504E-01
  5.08919016977894E-01  5.85761800216348E-01  8.55987058132539E-01
kptopt   1
ngkpt    2 2 2
nshiftk 1
shiftk 
0.5 0.5 0.5

ecut       30
pawecutdg  30
pawxcdev   0
ixc      -116133
nband    104
diemac   4

ecutsm  0.5
nstep    100
iscf     7
tolvrs   1.0E-20
ionmov   2
optcell  2
dilatmx  1.04
tolmxf   1e-8
ntime    150
strtarget 0.000 1*-1.69946e-05 0.00 3*0.0



# Printing flags
prtden    1
prteig    0
prtwf     1
prtposcar 0
prtcif    1
