#input for non-centrosymmetric orthorhombic HfO2

ndtset    2

autoparal 1

#Crystal Def.
ntypat   3
natom    26
typat    4*1 4*2 18*3
znucl    57 42 8
acell 3*1

rprim
  1.35586552623988E+01  2.00546802452027E-02  5.77281577839813E-01
  1.97439592506927E-02  1.33193217762729E+01 -2.00817390873556E-03
  5.70600232588521E-01 -1.46273944864274E-03  1.35591005705207E+01

             xred      8.1946695556E-01  8.6864267010E-01  8.7276093699E-01
                       3.9435281121E-01  6.2475401026E-01  1.6278554016E-01
                       1.7852850978E-01  3.7131030269E-01  6.2234341765E-01
                       6.0655481080E-01  1.2518455225E-01  3.3611199675E-01
                       1.8933904073E-01  1.6100339340E-01  1.1874545306E-01
                       7.0267671096E-01  3.3077090563E-01  7.9631496410E-01
                       8.1051546757E-01  6.6165546690E-01  3.8125366142E-01
                       2.9711177329E-01  8.3141684886E-01  7.0265087513E-01
                       3.0773528142E-01  3.1974333978E-01  3.0385846227E-01
                       9.0095326771E-01  1.8354867788E-01  7.1422622852E-01
                       6.9688576899E-01  8.1927787380E-01  1.9441922186E-01
                       9.9690275293E-02  6.8339049598E-01  7.8237436756E-01
                       9.6248195265E-01  1.6408870426E-01  2.3083219116E-01
                       5.2505794140E-01  3.1181698856E-01  6.4174534764E-01
                       4.0297051530E-02  6.6001696921E-01  2.7587548662E-01
                       4.7364462042E-01  8.1266597711E-01  8.5873314649E-01
                       3.4158130519E-01  9.7413336830E-01  2.0129164345E-01
                       2.9692534201E-01  4.5002835252E-02  5.7267300818E-01
                       6.9951885295E-01  5.4313480645E-01  9.2936625936E-01
                       6.6049621477E-01  4.7429967293E-01  2.9946262318E-01
                       2.4707879290E-01  3.6592292985E-01  9.6112766207E-01
                       7.5002386792E-01  8.6773780900E-01  5.3813269178E-01
                       3.6635554474E-01  6.6907395654E-01  5.1487150611E-01
                       6.3656637820E-01  1.6691640789E-01 -1.6186749062E-02
                       1.4292215769E-01  5.6680090723E-03 -8.3599973672E-02
                       8.5323930431E-01  5.0882302805E-01  5.8783003120E-01
 
kptopt   1
            ngfft          72      75      75
ngkpt    2 2 2
nshiftk 1
shiftk 
0.5 0.5 0.5
ecut       30
ecutsm  0.5
pawecutdg  30
pawxcdev   0
ixc      -116133
nband    104
diemac   4

# First SCF run       
#irdwfk1   1
nstep1    100
iscf1     7
tolvrs1   1.0E-20

#Refinement using tolwfr
nstep2    250
getwfk2   -1
iscf2     7
tolwfr2   1.0E-20

# Printing flags
prtden    1
prteig    0
prtwf     1
prtposcar 0
prtcif    1
