#input for non-centrosymmetric orthorhombic HfO2

ndtset    1
autoparal 1

#Crystal Def.

nsym      1
ntypat   3
natom    26
typat    4*1 4*2 18*3
znucl    57 42 8

acell 3*1

rprim
  1.35586551902877E+01  2.00540337124953E-02  5.77281281464394E-01
  1.97432883871163E-02  1.33193216321915E+01 -2.00733083365325E-03
  5.70599879206850E-01 -1.46190920941973E-03  1.35591018107215E+01

             xred     
  8.19466636125708E-01  8.68642823431891E-01  8.72761041939488E-01
  3.94353095036248E-01  6.24754079773628E-01  1.62785669307082E-01
  1.78528457708734E-01  3.71310077695958E-01  6.22343401776142E-01
  6.06554872968257E-01  1.25184582303372E-01  3.36112017677158E-01
  1.89339261235784E-01  1.61003581654317E-01  1.18745179808407E-01
  7.02676599653845E-01  3.30770926673121E-01  7.96314936595098E-01
  8.10515623834987E-01  6.61655450297659E-01  3.81253795552799E-01
  2.97111510550273E-01  8.31416695168568E-01  7.02650892020942E-01
  3.07735436030270E-01  3.19743328089412E-01  3.03858395814564E-01
  9.00953090267367E-01  1.83548550269095E-01  7.14226301510477E-01
  6.96885795517706E-01  8.19277780184751E-01  1.94419356865938E-01
  9.96898067290470E-02  6.83390677820118E-01  7.82374262885126E-01
  9.62482114914898E-01  1.64089169864188E-01  2.30831717777094E-01
  5.25057895167445E-01  3.11816810400424E-01  6.41745236625928E-01
  4.02973326855002E-02  6.60017198605777E-01  2.75875970313441E-01
  4.73644415782647E-01  8.12665852369095E-01  8.58733132035832E-01
  3.41581472147552E-01  9.74133459277030E-01  2.01291301003807E-01
  2.96925156448205E-01  4.50025017673419E-02  5.72672758115473E-01
  6.99518785241835E-01  5.43134834027528E-01  9.29366229747042E-01
  6.60496402480264E-01  4.74299537627253E-01  2.99462775348863E-01
  2.47079100477620E-01  3.65923142956374E-01  9.61127488861592E-01
  7.50023945355201E-01  8.67737722481691E-01  5.38132846501825E-01
  3.66355316765146E-01  6.69073600823806E-01  5.14871753915000E-01
  6.36566242215730E-01  1.66916605559632E-01 -1.61865641766908E-02
  1.42922311200192E-01  5.66819323000453E-03 -8.36000784434012E-02
  8.53239323472313E-01  5.08822817674271E-01  5.87830180621817E-01



kptopt   1
ngkpt    2 2 2
nshiftk 1
shiftk 
0.5 0.5 0.5

ecut       30
pawecutdg  30
pawxcdev   0
ixc      -116133
nband    104
diemac   4

ecutsm  0.5
nstep    100
iscf     7
tolvrs   1.0E-20
ionmov   2
optcell  2
dilatmx  1.04
tolmxf   1e-8
ntime    150
strtarget 3*0.0  0.0  -1.69946e-05  0.0



# Printing flags
prtden    1
prteig    0
prtwf     1
prtposcar 0
prtcif    1
