#input for non-centrosymmetric orthorhombic HfO2

ndtset    2

autoparal 1

#Crystal Def.
ntypat   3
natom    26
typat    4*1 4*2 18*3
znucl    57 42 8
acell 3*1

rprim
  1.35612896943216E+01  5.73705130997906E-01 -2.12879686506483E-03
  5.87196864167350E-01  1.35585806906790E+01  1.45515367952299E-02
 -3.15966435675178E-03  1.37170332289221E-02  1.33178839378493E+01

             xred      8.7316594056E-01  8.1989964604E-01  8.6877835302E-01
                       3.3598741524E-01  6.0624495899E-01  1.2506475845E-01
                       1.6310186838E-01  3.9431530498E-01  6.2486076047E-01
                       6.2320445301E-01  1.7887208319E-01  3.7109634126E-01
                       1.1871010243E-01  1.8929209364E-01  1.6124454577E-01
                       7.0332575762E-01  2.9753420039E-01  8.3143874312E-01
                       7.9641600637E-01  7.0227856245E-01  3.3061527708E-01
                       3.8124841725E-01  8.1047508844E-01  6.6157783971E-01
                       3.0420403416E-01  3.0679309905E-01  3.1965843889E-01
                       7.8317328817E-01  9.9917791892E-02  6.8322448370E-01
                       7.1507842946E-01  9.0091116341E-01  1.8369225979E-01
                       1.9447813521E-01  6.9644209458E-01  8.1936589454E-01
                       9.6109431307E-01  2.4792155218E-01  3.6607856846E-01
                       5.1545081328E-01  3.6642847944E-01  6.6891182070E-01
                      -1.6240003484E-02  6.3536014874E-01  1.6690536556E-01
                       5.3789878510E-01  7.5088917951E-01  8.6787660073E-01
                       2.2930899141E-01  9.6173557489E-01  1.6415536208E-01
                       2.7474321694E-01  3.9863160060E-02  6.6027916610E-01
                       8.5896708741E-01  4.7415024665E-01  8.1263090323E-01
                       6.4112271409E-01  5.2541489859E-01  3.1179620382E-01
                       2.0118966095E-01  3.4083134996E-01  9.7405034148E-01
                       9.2915471464E-01  6.9959586465E-01  5.4310980382E-01
                       2.9944879457E-01  6.6003997541E-01  4.7434205299E-01
                       5.7265594274E-01  2.9783323097E-01  4.4690231742E-02
                      -8.4152333320E-02  1.4337653790E-01  6.0152780996E-03
                       5.8726345473E-01  8.5358371401E-01  5.0854060537E-01
 
kptopt   1
            ngfft          72      75      75
ngkpt    2 2 2
nshiftk 1
shiftk 
0.5 0.5 0.5
ecut       30
ecutsm  0.5
pawecutdg  30
pawxcdev   0
ixc      -116133
nband    104
diemac   4

# First SCF run       
#irdwfk1   1
nstep1    100
iscf1     7
tolvrs1   1.0E-20

#Refinement using tolwfr
nstep2    250
getwfk2   -1
iscf2     7
tolwfr2   1.0E-20

# Printing flags
prtden    1
prteig    0
prtwf     1
prtposcar 0
prtcif    1
