#input for non-centrosymmetric orthorhombic HfO2

ndtset    1
autoparal 1

#Crystal Def.

nsym     1
ntypat   3
natom    26
typat    4*1 4*2 18*3
znucl    57 42 8

acell 3*1

rprim
  1.33099246296351E+01  1.55303433916765E-01 -6.62255396711937E-02
  1.54946661845691E-01  1.35753609920420E+01  6.86693423274005E-01
 -5.91555244121365E-02  7.13647769289395E-01  1.35759707684134E+01


xred
  8.72953618489341E-01  8.75723145673714E-01  8.20306712731848E-01
  3.62927232788192E-01  6.33745472953578E-01  1.83154512389405E-01
  1.23506135826131E-01  3.36035775209832E-01  6.05277222114661E-01
  6.24478600394953E-01  1.66581759644054E-01  3.94738754000262E-01
  1.61757101301262E-01  1.18820462157145E-01  1.90476167618295E-01
  6.62111846868971E-01  3.79914595066681E-01  8.11029019911282E-01
  8.28431934233503E-01  7.04603686232546E-01  2.97792389351021E-01
  3.32959525906723E-01  7.94577197508333E-01  7.01543241919213E-01
  3.18301428658987E-01  3.07561632404630E-01  2.99905507620188E-01
  8.20047157274505E-01  1.94933192418724E-01  6.91342650811276E-01
  6.85199344105436E-01  7.90345502491606E-01  9.59365690202278E-02
  1.82518502505023E-01  7.14827411123507E-01  8.97836792944170E-01
  9.74317188114656E-01  2.00628804123691E-01  3.38478297079159E-01
  4.73500025370413E-01  3.01669260235355E-01  6.60876274247041E-01
  4.03236521749051E-02  5.66395066958253E-01  3.01589564804287E-01
  5.44546150706145E-01  9.24515127312812E-01  6.97737611245370E-01
  3.72422209490185E-01  9.63028163500916E-01  2.55577478807104E-01
  1.68138255389403E-01 -1.38623399573572E-02  6.34316907787531E-01
  8.64847677835380E-01  5.35998676760823E-01  7.51802072780923E-01
  6.64230035879297E-01  5.20645518579222E-01  3.65112542577034E-01
  1.58928015401572E-01  2.23773610291097E-01  9.59219746165223E-01
  8.12911939908489E-01  8.59295353091085E-01  4.72815327310055E-01
  3.09183719190807E-01  6.41734340937775E-01  5.26389599610936E-01
  6.69465776064211E-01  2.64234828463254E-01  3.76377654786291E-02
  1.57370934868983E-02 -8.93936307093977E-02  1.49073538615733E-01
  5.06255832665599E-01  5.83667387531113E-01  8.60033733068708E-01

kptopt   1
ngkpt    2 2 2
nshiftk 1
shiftk 
0.5 0.5 0.5

ecut       30
pawecutdg  30
pawxcdev   0
ixc      -116133
nband    104
diemac   4

ecutsm  0.5
nstep    100
iscf     7
tolvrs   1.0E-20
ionmov   2
optcell  2
dilatmx  1.04
tolmxf   1e-8
ntime    150
strtarget 3*0.0 2*0.0 3.39893e-05



# Printing flags
prtden    1
prteig    0
prtwf     1
prtposcar 0
prtcif    1
