#input for KTaO3

ndtset    3

autoparal 1

#Crystal Def.
ntypat   3
natom    26
typat    4*1 4*2 18*3
znucl    57 42 8
acell 3*1


rprim
  1.36095821678171E+01  3.72228128650309E-01  5.63890051956114E-01
  3.68987443419856E-01  1.32634464133719E+01 -7.27755452038256E-02
  5.56566317368832E-01 -5.52967730634560E-02  1.36218770735697E+01

             xred      8.1061696551E-01  8.4738668254E-01  8.5338005334E-01
                       3.9094256374E-01  6.2329293655E-01  1.5827699958E-01
                       1.6238278987E-01  3.8074850528E-01  5.8824730884E-01
                       6.1892432880E-01  1.3254376471E-01  3.2576841473E-01
                       1.9049803037E-01  1.5721155040E-01  1.1811775886E-01
                       6.9771117570E-01  3.2668713648E-01  7.9315555473E-01
                       8.0930852564E-01  6.6565594816E-01  3.8217297743E-01
                       2.9585813690E-01  8.3072016866E-01  6.9708438456E-01
                       3.3015227098E-01  3.2234877629E-01  2.9637022346E-01
                       9.0259744433E-01  1.8764220548E-01  7.0148034470E-01
                       7.3024483811E-01  8.1992678636E-01  1.8500234586E-01
                       1.0664977544E-01  6.8028275352E-01  7.6929071758E-01
                       9.8175464325E-01  1.8967221155E-01  2.6298232372E-01
                       5.2043609211E-01  3.0698574541E-01  6.4006425718E-01
                       5.1361559742E-02  6.3305206838E-01  3.1456524216E-01
                       4.6888249013E-01  8.1738662600E-01  8.5686539095E-01
                       3.5597066624E-01  9.7249375907E-01  2.0333614718E-01
                       2.7226680853E-01  5.0189244556E-02  5.8427003085E-01
                       6.7956267373E-01  5.3448030361E-01  9.4135109030E-01
                       6.6939144783E-01  4.8023858481E-01  3.0174989180E-01
                       2.3754926040E-01  3.5549249829E-01  9.6203409559E-01
                       7.3747264846E-01  8.8100111444E-01  5.3117624425E-01
                       3.7897588175E-01  6.7593278266E-01  5.0730740477E-01
                       6.4764237599E-01  1.5668479498E-01 -2.3816338235E-02
                       1.2239684945E-01 -7.4632450165E-03 -5.9784125670E-02
                       8.3044975701E-01  5.2940629685E-01  6.0955126149E-01
 
nshiftk 1
shiftk 
0.5 0.5 0.5
#chksymbreak 0
kptopt   1
ngkpt    2 2 2

ecut 30
ixc      -116133
nband    104
nstep    150
diemac   4


# Data set 1 - Refinement of already computed GS WFs       
irdwfk1   0
irdden1   0
iscf1     7
tolvrs1   1.0E-20
nstep1    100

# Data Set 2: Response Function calculation : d/dk 
rfelfd2    2 
rfdir2     1    1    1 

nqpt2      1 
qpt2       0.0  0.0  0.0  

getwfk2   -1 
getden2   -1 

kptopt2    2 

iscf2     -3 

tolwfr2    1.0d-22 

# Data set 3 : Response Function calculation - electric field perturbation, phonons, and strain

rfphon3   1            # Will consider phonon-type perturbation 
rfelfd3   3            # Electric Field
rfstrs3   3            # Strains

rfdir3    1   1   1    # Along all reduced coordinate axis 
rfatpol3  1   26        # All the atoms will be displaced 

nqpt3     1            # One wavevector is to be considered 
qpt3      0.0 0.0 0.0  # This wavevector is q=0 (Gamma) 

kptopt3   2            # Automatic generation of k points, taking 
                       # into account the time-reversal symmetry only 

getwfk3   1            # Read the ground-state wavefunctions 
getddk3   2
                                              
tolvrs3   1.0d-20      # SCF stopping criterion 
                       



# Printing flags
prtden    1
prteig    0
prtwf     1
prtposcar 0
prtcif    0

ecutsm  0.5
            ngfft          72      75      75
pawecutdg  30
pawxcdev   0
