#input for KTaO3

ndtset    3

autoparal 1

#Crystal Def.
ntypat   3
natom    26
typat    4*1 4*2 18*3
znucl    57 42 8
acell 3*1


rprim
  1.35791149268912E+01  1.50515190072773E-01 -6.92926286633421E-01
  1.48937516596339E-01  1.33095023805280E+01  2.47198266054753E-02
 -6.91037492650003E-01  1.73696676790257E-02  1.35714694559293E+01

             xred      8.9396417097E-01  8.7479313409E-01  8.3294369165E-01
                       3.2256802078E-01  6.2476076763E-01  1.2002018479E-01
                       1.0479424787E-01  3.7661386960E-01  6.6331696926E-01
                       6.8463477584E-01  1.3772132419E-01  3.6418427177E-01
                       2.0239763689E-01  1.6705051947E-01  2.0430218225E-01
                       6.9039960858E-01  3.3780185321E-01  8.8032396624E-01
                       7.9774859231E-01  6.7073908286E-01  2.9408125001E-01
                       3.1137007985E-01  8.3904346269E-01  6.1900967634E-01
                       3.9845470449E-01  3.1610217144E-01  2.8297235244E-01
                       7.9696938239E-01  1.8178861381E-01  6.9083223163E-01
                       5.9613770699E-01  8.1642196563E-01  2.0860509486E-01
                       1.8933391495E-01  6.7984065483E-01  8.0299349364E-01
                       1.0272797256E+00  1.8960781063E-01  3.5824518655E-01
                       4.5719649116E-01  3.4513217663E-01  7.8047289627E-01
                      -2.6484834191E-02  6.8794524960E-01  1.4073370616E-01
                       5.3591924048E-01  8.2887442206E-01  7.3889858391E-01
                       2.0170460992E-01  9.5266493905E-01  7.6268011929E-02
                       1.5781046589E-01  2.6811465740E-02  7.0079105970E-01
                       8.3646061230E-01  5.2520417941E-01  8.0239564776E-01
                       8.0559299710E-01  4.6125506369E-01  4.3376627055E-01
                       1.3189963422E-01  3.2891565917E-01  1.0140750893E+00
                       8.6223309236E-01  8.3685635090E-01  4.8029373773E-01
                       2.5392216119E-01  6.3610151349E-01  4.6132205538E-01
                       7.5557411936E-01  1.2790689508E-01  3.4799689883E-02
                       6.5048483793E-01  4.8438741274E-01  1.0934509397E+00
                       3.6163400476E-01  9.9565944232E-01  4.2090176035E-01
 
nshiftk 1
shiftk 
0.5 0.5 0.5
#chksymbreak 0
kptopt   1
ngkpt    2 2 2

ecut 30
ixc      -116133
nband    104
nstep    150
diemac   4


# Data set 1 - Refinement of already computed GS WFs       
irdwfk1   0
irdden1   0
iscf1     7
tolvrs1   1.0E-20
nstep1    100

# Data Set 2: Response Function calculation : d/dk 
rfelfd2    2 
rfdir2     1    1    1 

nqpt2      1 
qpt2       0.0  0.0  0.0  

getwfk2   -1 
getden2   -1 

kptopt2    2 

iscf2     -3 

tolwfr2    1.0d-22 

# Data set 3 : Response Function calculation - electric field perturbation, phonons, and strain

rfphon3   1            # Will consider phonon-type perturbation 
rfelfd3   3            # Electric Field
rfstrs3   3            # Strains

rfdir3    1   1   1    # Along all reduced coordinate axis 
rfatpol3  1   26        # All the atoms will be displaced 

nqpt3     1            # One wavevector is to be considered 
qpt3      0.0 0.0 0.0  # This wavevector is q=0 (Gamma) 

kptopt3   2            # Automatic generation of k points, taking 
                       # into account the time-reversal symmetry only 

getwfk3   1            # Read the ground-state wavefunctions 
getddk3   2
                                              
tolvrs3   1.0d-20      # SCF stopping criterion 
                       



# Printing flags
prtden    1
prteig    0
prtwf     1
prtposcar 0
prtcif    0

ecutsm  0.5
            ngfft          72      75      75
pawecutdg  30
pawxcdev   0
