#input for non-centrosymmetric orthorhombic HfO2

ndtset    1
autoparal 1

#Crystal Def.

nsym      1
ntypat   3
natom    26
typat    4*1 4*2 18*3
znucl    57 42 8

acell 3*1

rprim
  1.36101877881628E+01  3.72467000266464E-01  5.64221745154907E-01
  3.69254983755131E-01  1.32629305490083E+01 -7.29200856491540E-02
  5.56910742675097E-01 -5.54394025941917E-02  1.36222454951306E+01

             xred  
  8.10581920361500E-01  8.47424794579168E-01  8.53329966497311E-01
  3.90893888674173E-01  6.23222939807283E-01  1.58271422085759E-01
  1.62324189640627E-01  3.80732211917664E-01  5.88251021705695E-01
  6.18943835358712E-01  1.32525025843170E-01  3.25765113256356E-01
  1.90520412250294E-01  1.57223049556195E-01  1.18134171368877E-01
  6.97680291551591E-01  3.26713036370134E-01  7.93162728548111E-01
  8.09328693580063E-01  6.65640469444776E-01  3.82145229331603E-01
  2.95855240535127E-01  8.30694870094749E-01  6.97031328947072E-01
  3.30199049951063E-01  3.22327262672013E-01  2.96409890428029E-01
  9.02515171920569E-01  1.87607418284893E-01  7.01415887317348E-01
  7.30396552067775E-01  8.19923001567015E-01  1.84966831510230E-01
  1.06620677753847E-01  6.80328971601289E-01  7.69298212585634E-01
  9.81820512402822E-01  1.89682297599451E-01  2.63060587719688E-01
  5.20377215702066E-01  3.07018996445368E-01  6.40137873481698E-01
  5.13944297716409E-02  6.32986326917834E-01  3.14626624151505E-01
  4.68871126711592E-01  8.17341524109388E-01  8.56797073746723E-01
  3.55994063179406E-01  9.72475020945028E-01  2.03299769345905E-01
  2.72281349328710E-01  5.01736010859953E-02  5.84219241258586E-01
  6.79554281145595E-01  5.34496209308225E-01  9.41379305488359E-01
  6.69415747266479E-01  4.80229541181313E-01  3.01755777263886E-01
  2.37562108623913E-01  3.55601059186172E-01  9.62145636971807E-01
  7.37421982972636E-01  8.80978052316607E-01  5.31144596909843E-01
  3.78951502942129E-01  6.75875974398285E-01  5.07273102733055E-01
  6.47657251336914E-01  1.56708878810344E-01 -2.37881865512375E-02
  1.22413716406995E-01 -7.35380422822343E-03 -5.98149914606697E-02
  8.30424788577367E-01  5.29423270212163E-01  6.09581785359958E-01


kptopt   1
ngkpt    2 2 2
nshiftk 1
shiftk 
0.5 0.5 0.5

ecut       30
pawecutdg  30
pawxcdev   0
ixc      -116133
nband    104
diemac   4

ecutsm  0.5
nstep    100
iscf     7
tolvrs   1.0E-20
ionmov   2
optcell  2
dilatmx  1.04
tolmxf   1e-8
ntime    150
strtarget 3*0.0  2*0.0  3.39893e-05 



# Printing flags
prtden    1
prteig    0
prtwf     1
prtposcar 0
prtcif    1
