#input for non-centrosymmetric orthorhombic HfO2

ndtset    1
autoparal 1

#Crystal Def.

nsym      1
ntypat   3
natom    26
typat    4*1 4*2 18*3
znucl    57 42 8

acell 3*1

rprim
  1.35791094553092E+01  1.50501193784734E-01 -6.92928276256835E-01
  1.48923892467996E-01  1.33095092670923E+01  2.47244167963906E-02
 -6.91039244596867E-01  1.73750828709929E-02  1.35714701621181E+01

xred      
  8.93964450567919E-01  8.74793292646223E-01  8.32944491154241E-01
  3.22567662695988E-01  6.24761289165876E-01  1.20021424587698E-01
  1.04793842345652E-01  3.76613820635566E-01  6.63317161869653E-01
  6.84634337957356E-01  1.37719217913423E-01  3.64186425502984E-01
  2.02398128646097E-01  1.67050620170105E-01  2.04302941316262E-01
  6.90399319902115E-01  3.37802583525136E-01  8.80322906266033E-01
  7.97748231576983E-01  6.70738991744234E-01  2.94080728915344E-01
  3.11370107210078E-01  8.39043143061869E-01  6.19010715130033E-01
  3.98455515743948E-01  3.16102335219094E-01  2.82973338162576E-01
  7.96970599282525E-01  1.81788259660109E-01  6.90832350572646E-01
  5.96137987976639E-01  8.16423005595422E-01  2.08606014646723E-01
  1.89334410759203E-01  6.79840841185592E-01  8.02994818489321E-01
  1.02727985886998E+00  1.89607226783730E-01  3.58245634471416E-01
  4.57196771776286E-01  3.45129484192815E-01  7.80470357197466E-01
 -2.64848228011135E-02  6.87945402688190E-01  1.40733640662502E-01
  5.35919952950927E-01  8.28875621713417E-01  7.38898775215273E-01
  2.01704866096309E-01  9.52665249194104E-01  7.62687300896529E-02
  1.57810406205159E-01  2.68113174801293E-02  7.00791369870077E-01
  8.36460989830040E-01  5.25204456389973E-01  8.02392973439097E-01
  8.05590971900840E-01  4.61253440501546E-01  4.33762805530070E-01
  1.31900670021792E-01  3.28915693703444E-01  1.01407544785137E+00
  8.62233971098254E-01  8.36854200421571E-01  4.80294327277009E-01
  2.53921997197407E-01  6.36100929284325E-01  4.61323377101011E-01
  7.55573782845512E-01  1.27909289375801E-01  3.48002391427158E-02
  6.50482435463721E-01  4.84391193860643E-01  1.09344659978158E+00
  3.61633553894191E-01  9.95659093834873E-01  4.20902405763211E-01



kptopt   1
            ngfft          72      75      75

ngkpt    2 2 2
nshiftk 1
shiftk 
0.5 0.5 0.5

ecut       30
pawecutdg  30
pawxcdev   0
ixc      -116133
nband    104
diemac   4

ecutsm  0.5
nstep    100
iscf     7
tolvrs   1.0E-20
ionmov   2
optcell  2
dilatmx  1.04
tolmxf   1e-8
ntime    150
strtarget 5*0.0 1.69946e-05 



# Printing flags
prtden    1
prteig    0
prtwf     1
prtposcar 0
prtcif    1
