#input for non-centrosymmetric orthorhombic HfO2

ndtset    2

autoparal 1

#Crystal Def.
ntypat   3
natom    26
typat    4*1 4*2 18*3
znucl    57 42 8
acell 3*1

rprim
  1.35718992024545E+01 -3.43258056719265E-02 -7.00778894379005E-01
 -4.15380616795473E-02  1.33129017117430E+01 -1.51679996102058E-01
 -6.98162254991800E-01 -1.52513392441253E-01  1.35786771077889E+01

             xred      8.9437355619E-01  8.7624220826E-01  8.3548234612E-01
                       3.1803164605E-01  6.3345034020E-01  1.2974284212E-01
                       1.0433883343E-01  3.7539090712E-01  6.6549108996E-01
                       6.8070165697E-01  1.2836635932E-01  3.7300456871E-01
                       2.0323681485E-01  1.7049103269E-01  2.0480552299E-01
                       6.8856657559E-01  3.3784462315E-01  8.7955615935E-01
                       7.9866369664E-01  6.6758466296E-01  2.9435348945E-01
                       3.0962294122E-01  8.3895107287E-01  6.1898761587E-01
                       4.0412472533E-01  3.1591830553E-01  2.8805293631E-01
                       8.0561746145E-01  1.8024786080E-01  6.9374644296E-01
                       6.0097552493E-01  8.1705619576E-01  2.1493820275E-01
                       1.9701131084E-01  6.8112954020E-01  8.0601989135E-01
                       1.0275863252E+00  1.8599866893E-01  3.5887139631E-01
                       4.6028157013E-01  3.3406158754E-01  7.6740447693E-01
                      -2.6441955563E-02  6.9159347102E-01  1.4121467699E-01
                       5.3926022929E-01  8.3818199506E-01  7.2787286994E-01
                       2.0176248591E-01  9.5745252407E-01  6.9283356569E-02
                       1.6004117272E-01  2.5793501591E-02  7.0177992551E-01
                       8.3825356877E-01  5.2619330468E-01  8.0193016270E-01
                       8.0495705566E-01  4.5622300385E-01  4.2506032973E-01
                       1.3377118727E-01  3.3273527351E-01  1.0195564896E+00
                       8.6463725583E-01  8.3277101940E-01  4.8579151996E-01
                       2.4614412991E-01  6.3027478654E-01  4.6141778428E-01
                       7.4823997550E-01  1.3424639578E-01  3.4934027897E-02
                       6.4210382266E-01  4.9278575785E-01  1.0854774697E+00
                       3.5413843321E-01  9.8901560127E-01  4.1522440591E-01
 
kptopt   1
            ngfft          72      75      75
ngkpt    2 2 2
nshiftk 1
shiftk 
0.5 0.5 0.5
ecut       30
ecutsm  0.5
pawecutdg  30
pawxcdev   0
ixc      -116133
nband    104
diemac   4

# First SCF run       
#irdwfk1   1
nstep1    100
iscf1     7
tolvrs1   1.0E-20

#Refinement using tolwfr
nstep2    250
getwfk2   -1
iscf2     7
tolwfr2   1.0E-20

# Printing flags
prtden    1
prteig    0
prtwf     1
prtposcar 0
prtcif    1
