#input for non-centrosymmetric orthorhombic HfO2

ndtset    1
autoparal 1

#Crystal Def.

nsym      1
ntypat   3
natom    26
typat    4*1 4*2 18*3
znucl    57 42 8

acell 3*1

rprim
  1.35718995563984E+01 -3.43257421061706E-02 -7.00779265341872E-01
 -4.15379998918237E-02  1.33129011934000E+01 -1.51680040967658E-01
 -6.98162637539108E-01 -1.52513435014603E-01  1.35786772555641E+01

xred      
  8.94373562571694E-01  8.76242233594860E-01  8.35482346597470E-01
  3.18031666491339E-01  6.33450347833937E-01  1.29742875093069E-01
  1.04338775096399E-01  3.75390916978345E-01  6.65491065601671E-01
  6.80701655546257E-01  1.28366396715819E-01  3.73004568148874E-01
  2.03236828957372E-01  1.70491006401452E-01  2.04805506061963E-01
  6.88566572329278E-01  3.37844639148745E-01  8.79556183766011E-01
  7.98663760671982E-01  6.67584697735073E-01  2.94353509229127E-01
  3.09622882880180E-01  8.38951045227759E-01  6.18987614438010E-01
  4.04124732490468E-01  3.15918295999694E-01  2.88052913160845E-01
  8.05617407544866E-01  1.80247861919145E-01  6.93746405645829E-01
  6.00975572334569E-01  8.17056213187849E-01  2.14938257731557E-01
  1.97011242955471E-01  6.81129536578521E-01  8.06019891256429E-01
  1.02758631682951E+00  1.85998652217069E-01  3.58871340433934E-01
  4.60281554848594E-01  3.34061600332170E-01  7.67404550042105E-01
 -2.64419298524148E-02  6.91593463124259E-01  1.41214657212698E-01
  5.39260173183275E-01  8.38181932581882E-01  7.27872842428961E-01
  2.01762570094584E-01  9.57452505150058E-01  6.92833156537172E-02
  1.60041190104442E-01  2.57935376150726E-02  7.01779928412784E-01
  8.38253544194841E-01  5.26193318206794E-01  8.01930164056196E-01
  8.04957019222252E-01  4.56223048460411E-01  4.25060376421805E-01
  1.33771217038138E-01  3.32735259893690E-01  1.01955648089516E+00
  8.64637357056217E-01  8.32771098607397E-01  4.85791497420481E-01
  2.46144041497522E-01  6.30274718428882E-01  4.61417808908069E-01
  7.48240006885301E-01  1.34246389581883E-01  3.49340188229739E-02
  6.42103868740535E-01  4.92785757158109E-01  1.08547750163800E+00
  3.54138410301394E-01  9.89015527268070E-01  4.15224380928317E-01



kptopt   1
            ngfft          72      75      75

ngkpt    2 2 2
nshiftk 1
shiftk 
0.5 0.5 0.5

ecut       30
pawecutdg  30
pawxcdev   0
ixc      -116133
nband    104
diemac   4

ecutsm  0.5
nstep    100
iscf     7
tolvrs   1.0E-20
ionmov   2
optcell  2
dilatmx  1.04
tolmxf   1e-8
ntime    150
strtarget 3*0.0 -3.39893e-05 2*0.0 



# Printing flags
prtden    1
prteig    0
prtwf     1
prtposcar 0
prtcif    1
