#input for KTaO3

ndtset    3

autoparal 1

#Crystal Def.
ntypat   3
natom    26
typat    4*1 4*2 18*3
znucl    57 42 8
acell 3*1


rprim
  1.36054512063405E+01  9.44719973163555E-03  7.17980034192475E-01
  9.48270171735557E-03  1.32198286543915E+01 -2.61606519438933E-03
  7.11587753437262E-01 -2.72989366179033E-03  1.36009699463158E+01

             xred      8.1852753928E-01  8.6781588892E-01  8.6981445261E-01
                       3.9559977512E-01  6.2398649647E-01  1.6496668235E-01
                       1.8072381429E-01  3.6904024394E-01  6.2822580762E-01
                       6.0451677391E-01  1.2429625611E-01  3.3452479116E-01
                       1.8918814374E-01  1.6186389400E-01  1.1974155268E-01
                       7.0190426712E-01  3.3059677298E-01  7.9443917139E-01
                       8.1043425131E-01  6.6232077114E-01  3.8036458274E-01
                       2.9839368360E-01  8.3095836233E-01  7.0494303166E-01
                       3.0401387551E-01  3.1967732549E-01  3.0630535680E-01
                       9.0146680173E-01  1.8275884864E-01  7.1290726640E-01
                       6.9749456140E-01  8.1948074697E-01  1.9319055513E-01
                       9.9189902960E-02  6.8293060240E-01  7.8551380433E-01
                       9.6099298368E-01  1.6470264031E-01  2.3064321923E-01
                       5.2648115280E-01  3.1120275427E-01  6.4213004402E-01
                       3.9840823954E-02  6.6362701131E-01  2.7243210528E-01
                       4.7306014343E-01  8.1104300089E-01  8.5819592732E-01
                       3.3875793798E-01  9.7286285059E-01  1.9945321681E-01
                       3.0159587537E-01  4.3454737521E-02  5.7042894193E-01
                       6.9763278749E-01  5.4255583810E-01  9.3024116106E-01
                       6.6207580446E-01  4.7289647653E-01  3.0069597204E-01
                       2.5124207166E-01  3.6953581494E-01  9.6421840785E-01
                       7.4704720349E-01  8.7025215979E-01  5.3598766620E-01
                       3.6649211531E-01  6.6619473455E-01  5.1684553295E-01
                       6.3477705162E-01  1.6520979165E-01 -1.7799304045E-02
                       1.4441921481E-01  9.7303372096E-03 -8.5714983745E-02
                       8.5413144399E-01  5.1100564298E-01  5.8730503822E-01
 
nshiftk 1
shiftk 
0.5 0.5 0.5
#chksymbreak 0
kptopt   1
ngkpt    2 2 2

ecut 30
ixc      -116133
nband    104
nstep    150
diemac   4


# Data set 1 - Refinement of already computed GS WFs       
irdwfk1   0
irdden1   0
iscf1     7
tolvrs1   1.0E-20
nstep1    100

# Data Set 2: Response Function calculation : d/dk 
rfelfd2    2 
rfdir2     1    1    1 

nqpt2      1 
qpt2       0.0  0.0  0.0  

getwfk2   -1 
getden2   -1 

kptopt2    2 

iscf2     -3 

tolwfr2    1.0d-22 

# Data set 3 : Response Function calculation - electric field perturbation, phonons, and strain

rfphon3   1            # Will consider phonon-type perturbation 
rfelfd3   3            # Electric Field
rfstrs3   3            # Strains

rfdir3    1   1   1    # Along all reduced coordinate axis 
rfatpol3  1   26        # All the atoms will be displaced 

nqpt3     1            # One wavevector is to be considered 
qpt3      0.0 0.0 0.0  # This wavevector is q=0 (Gamma) 

kptopt3   2            # Automatic generation of k points, taking 
                       # into account the time-reversal symmetry only 

getwfk3   1            # Read the ground-state wavefunctions 
getddk3   2
                                              
tolvrs3   1.0d-20      # SCF stopping criterion 
                       



# Printing flags
prtden    1
prteig    0
prtwf     1
prtposcar 0
prtcif    0

ecutsm  0.5
            ngfft          72      75      75
pawecutdg  30
pawxcdev   0
