#input for non-centrosymmetric orthorhombic HfO2

ndtset    1
autoparal 1

#Crystal Def.

nsym      1
ntypat   3
natom    26
typat    4*1 4*2 18*3
znucl    57 42 8

acell 3*1

rprim
  1.35864486009393E+01  1.16835975149248E-02  7.10363136098819E-01
  1.16291114137914E-02  1.32676190193421E+01 -2.84088363976185E-03
  7.03706517168187E-01 -2.84757419382132E-03  1.35871870616405E+01

             xred 
  8.18341467972812E-01  8.68283283256711E-01  8.70215896554235E-01
  3.95414052049708E-01  6.23937791493405E-01  1.64716795745486E-01
  1.80761406971363E-01  3.69748303052921E-01  6.27564866322120E-01
  6.04759055964660E-01  1.24242374892120E-01  3.34706641580601E-01
  1.89236582780024E-01  1.61531897965739E-01  1.19671994682354E-01
  7.02115630920741E-01  3.30711053595445E-01  7.94647420066995E-01
  8.10395670058631E-01  6.61946475255536E-01  3.80453195707903E-01
  2.98113618516160E-01  8.31210532751655E-01  7.04683886287686E-01
  3.04742638904602E-01  3.19483978608813E-01  3.05931948116402E-01
  9.01699646799105E-01  1.83180921128691E-01  7.12910104031638E-01
  6.97174568315976E-01  8.19266348624084E-01  1.93401982800831E-01
  9.89737956559626E-02  6.83410694196029E-01  7.85292048302909E-01
  9.60965792796651E-01  1.64586390691219E-01  2.31204736759733E-01
  5.26612026006745E-01  3.11301096892196E-01  6.41779717586763E-01
  4.00565963980145E-02  6.63021423950217E-01  2.72251233196715E-01
  4.72882021417857E-01  8.11084078921386E-01  8.58463818422025E-01
  3.39047097941085E-01  9.73287011660482E-01  1.99777608420875E-01
  3.01273017455846E-01  4.37500732794102E-02  5.71286233340977E-01
  6.97719378931091E-01  5.42592663503342E-01  9.29602749357136E-01
  6.61838050687668E-01  4.73362186657556E-01  3.00501513778812E-01
  2.50633708700044E-01  3.68375650131091E-01  9.63655251197516E-01
  7.47565267311392E-01  8.69194198471303E-01  5.36478409554682E-01
  3.66451986910297E-01  6.67157183448353E-01  5.16336652495290E-01
  6.34888590517831E-01  1.65908606971806E-01 -1.74282387513282E-02
  1.43865017166222E-01  8.98771261988934E-03 -8.50596793043686E-02
  8.54473312862838E-01  5.10438068006425E-01  5.86953213746500E-01

kptopt   1
ngkpt    2 2 2
nshiftk 1
shiftk 
0.5 0.5 0.5

ecut       30
pawecutdg  30
pawxcdev   0
ixc      -116133
nband    104
diemac   4

ecutsm  0.5
nstep    100
iscf     7
tolvrs   1.0E-20
ionmov   2
optcell  2
dilatmx  1.04
tolmxf   1e-8
ntime    150
strtarget 0.00 1*-1.69946e-05 0.0 3*0.0



# Printing flags
prtden    1
prteig    0
prtwf     1
prtposcar 0
prtcif    1
