#input for non-centrosymmetric orthorhombic HfO2

ndtset    1
autoparal 1

#Crystal Def.

nsym      1
ntypat   3
natom    26
typat    4*1 4*2 18*3
znucl    57 42 8

acell 3*1

rprim
  1.33000582673772E+01 -4.76395483563370E-05 -4.24243964382731E-04
 -2.36511071359032E-04  1.36304553847233E+01 -6.92080960218134E-01
 -3.28690363009157E-04 -7.20651146555607E-01  1.35524355167830E+01

xred      
  8.75893439060972E-01  8.34768846518295E-01  8.95478557373484E-01
  3.75648423095799E-01  6.65187231654548E-01  1.04637416604609E-01
  1.30164202100729E-01  3.72522662629076E-01  6.81685491728629E-01
  6.29823438887886E-01  1.27544648834585E-01  3.18142647981628E-01
  1.68802182771092E-01  2.05374732625841E-01  2.02435316760219E-01
  6.68959705270457E-01  2.95198069059880E-01  7.97783039170299E-01
  8.38345832173687E-01  6.19159007736707E-01  3.10744328667722E-01
  3.38584558513876E-01  8.80644079015594E-01  6.89095296091805E-01
  3.16414494402555E-01  2.85289654322314E-01  4.02444992153217E-01
  8.15977537164474E-01  2.16037035848060E-01  5.97277043883822E-01
  6.80681946389149E-01  8.05751343848209E-01  1.96325874578425E-01
  1.80677765923388E-01  6.94076679422605E-01  8.03786410359949E-01
  9.56414299768926E-01  7.25982474754538E-02  1.98815465509553E-01
  4.56700456113593E-01  4.28049787608135E-01  8.01251751715173E-01
  2.61013090106542E-02  7.00286249969848E-01  1.61286768826220E-01
  5.25970725187213E-01  8.00118868506877E-01  8.39162862452414E-01
  3.32264540971505E-01  1.01731019961707E+00  1.34202818313831E-01
  1.32044924994129E-01  3.61587242649153E-02  7.50470175633235E-01
  8.32644714030005E-01  4.82711033717090E-01  8.66962608673531E-01
  6.32493413822436E-01  4.63048165998792E-01  2.48659198842275E-01
  1.89407289730680E-01  3.58539737674241E-01  1.02707568352595E+00
  8.36069532563539E-01  7.28079886798482E-01  5.40550998017458E-01
  3.37039417493688E-01  7.70380319473108E-01  4.59769121662986E-01
  6.89021250356132E-01  1.40895285067640E-01 -2.77815734065425E-02
  9.92223937319606E-01  4.15743070795512E-01  3.55314118026198E-01
  4.91630662839900E-01  1.08452643147008E+00  6.44423586921996E-01

kptopt   1
            ngfft          72      75      75

ngkpt    2 2 2
nshiftk 1
shiftk 
0.5 0.5 0.5

ecut       30
pawecutdg  30
pawxcdev   0
ixc      -116133
nband    104
diemac   4

ecutsm  0.5
nstep    100
iscf     7
tolvrs   1.0E-20
ionmov   2
optcell  2
dilatmx  1.04
tolmxf   1e-8
ntime    150
strtarget 0.0 1.69946e-05 4*0.0 



# Printing flags
prtden    1
prteig    0
prtwf     1
prtposcar 0
prtcif    1
