#input for non-centrosymmetric orthorhombic HfO2

ndtset    2

autoparal 1

#Crystal Def.
ntypat   3
natom    26
typat    4*1 4*2 18*3
znucl    57 42 8
acell 3*1

rprim
  1.33000541065051E+01 -3.49382339558020E-05 -4.09632709181349E-04
 -2.24254171016333E-04  1.36304595513804E+01 -6.92072053995317E-01
 -3.14490815917734E-04 -7.20643922145839E-01  1.35524077373180E+01

             xred      8.7589520755E-01  8.3476823919E-01  8.9547970322E-01
                       3.7565091931E-01  6.6518634728E-01  1.0463695287E-01
                       1.3016377611E-01  3.7252096319E-01  6.8168708599E-01
                       6.2982241279E-01  1.2754214061E-01  3.1814273476E-01
                       1.6880120643E-01  2.0537242535E-01  2.0243426087E-01
                       6.6895763966E-01  2.9519862215E-01  7.9778299125E-01
                       8.3834703240E-01  6.1915661841E-01  3.1074434896E-01
                       3.3858475566E-01  8.8064670263E-01  6.8909677331E-01
                       3.1641226963E-01  2.8528652248E-01  4.0244465039E-01
                       8.1597602504E-01  2.1603797677E-01  5.9727654878E-01
                       6.8068415522E-01  8.0574965064E-01  1.9632372383E-01
                       1.8067924912E-01  6.9407700239E-01  8.0378379545E-01
                       9.5641289388E-01  7.2596693475E-02  1.9881302641E-01
                       4.5669918120E-01  4.2805253060E-01  8.0125205739E-01
                       2.6102806279E-02  7.0028363544E-01  1.6128585546E-01
                       5.2597134295E-01  8.0011922652E-01  8.3916254385E-01
                       3.3226393102E-01  1.0173083685E+00  1.3420058881E-01
                       1.3204532138E-01  3.6161119643E-02  7.5047446618E-01
                       8.3264255730E-01  4.8271164765E-01  8.6696284681E-01
                       6.3249290968E-01  4.6304747495E-01  2.4866236074E-01
                       1.8940671921E-01  3.5853878949E-01  1.0270758752E+00
                       8.3607265900E-01  7.2808076252E-01  5.4054995692E-01
                       3.3704190575E-01  7.7038980881E-01  4.5976763658E-01
                       6.8901876311E-01  1.4089624250E-01 -2.7781013282E-02
                       9.9222383512E-01  4.1574002961E-01  3.5531450332E-01
                       4.9163052517E-01  1.0845304592E+00  6.4442572601E-01
 
kptopt   1
            ngfft          72      75      75
ngkpt    2 2 2
nshiftk 1
shiftk 
0.5 0.5 0.5
ecut       30
ecutsm  0.5
pawecutdg  30
pawxcdev   0
ixc      -116133
nband    104
diemac   4

# First SCF run       
#irdwfk1   1
nstep1    100
iscf1     7
tolvrs1   1.0E-20

#Refinement using tolwfr
nstep2    250
getwfk2   -1
iscf2     7
tolwfr2   1.0E-20

# Printing flags
prtden    1
prteig    0
prtwf     1
prtposcar 0
prtcif    1
