#input for non-centrosymmetric orthorhombic HfO2

ndtset    2

autoparal 1

#Crystal Def.
ntypat   3
natom    26
typat    4*1 4*2 18*3
znucl    57 42 8
acell 3*1

rprim
  1.35510224621119E+01 -2.80965884993681E-04 -7.10834222613552E-01
 -2.30870315155045E-04  1.32984841687220E+01  8.70537034977769E-04
 -7.04394725060832E-01  8.95387246518093E-04  1.36316317679292E+01

             xred      8.9557958509E-01  8.7590966954E-01  8.3479134593E-01
                       3.1815319186E-01  6.2987947379E-01  1.2804665293E-01
                       1.0488057636E-01  3.7544619180E-01  6.6530469957E-01
                       6.8135344643E-01  1.3041599275E-01  3.7272553778E-01
                       2.0194736683E-01  1.6867250714E-01  2.0556950027E-01
                       6.8951795451E-01  3.3863728071E-01  8.8077492079E-01
                       7.9794815060E-01  6.6930101565E-01  2.9528543551E-01
                       3.1062557959E-01  8.3804771565E-01  6.1915527043E-01
                       4.0191238509E-01  3.1638406273E-01  2.8563660718E-01
                       8.0417654996E-01  1.8063891479E-01  6.9404238830E-01
                       5.9755420576E-01  8.1639305301E-01  2.1590014579E-01
                       1.9706042582E-01  6.8056123951E-01  8.0589786454E-01
                       1.0264375222E+00  1.9008835681E-01  3.5847892874E-01
                       4.6040572986E-01  3.3677472691E-01  7.6993118591E-01
                      -2.7590987825E-02  6.8852898037E-01  1.4090566787E-01
                       5.4079326058E-01  8.3589566890E-01  7.2732785682E-01
                       1.9802098876E-01  9.5639515734E-01  7.2537782853E-02
                       1.6152791448E-01  2.6086435240E-02  7.0035250175E-01
                       8.3976143102E-01  5.2605542813E-01  8.0034009221E-01
                       8.0017812241E-01  4.5734289124E-01  4.2838417287E-01
                       1.3420761774E-01  3.3213579559E-01  1.0173553843E+00
                       8.6760596507E-01  8.3313474612E-01  4.8241826953E-01
                       2.4856409018E-01  6.3214436105E-01  4.6311430340E-01
                       7.5044804507E-01  1.3183830314E-01  3.6044561652E-02
                       6.4418555383E-01  4.9147521283E-01  1.0844512543E+00
                       3.5474532872E-01  9.9181681922E-01  4.1522766873E-01
 
kptopt   1
            ngfft          72      75      75
ngkpt    2 2 2
nshiftk 1
shiftk 
0.5 0.5 0.5
ecut       30
ecutsm  0.5
pawecutdg  30
pawxcdev   0
ixc      -116133
nband    104
diemac   4

# First SCF run       
#irdwfk1   1
nstep1    100
iscf1     7
tolvrs1   1.0E-20

#Refinement using tolwfr
nstep2    250
getwfk2   -1
iscf2     7
tolwfr2   1.0E-20

# Printing flags
prtden    1
prteig    0
prtwf     1
prtposcar 0
prtcif    1
