#input for non-centrosymmetric orthorhombic HfO2

ndtset    1
autoparal 1

#Crystal Def.

nsym      1
ntypat   3
natom    26
typat    4*1 4*2 18*3
znucl    57 42 8

acell 3*1

rprim
  1.32805574590343E+01 -1.56088151139574E-03  1.05279716357726E-03
 -1.85935595801266E-03  1.35403325933812E+01 -7.10942533454277E-01
  1.28519828364677E-03 -7.27275989005885E-01  1.36994431211844E+01

xred      
  8.76190305223696E-01  8.34113431054909E-01  8.95767910178591E-01
  3.76266705265402E-01  6.65935084506143E-01  1.04260376652788E-01
  1.32002638455733E-01  3.69397058631227E-01  6.82060632869533E-01
  6.31818658836577E-01  1.30281244783212E-01  3.18129049998951E-01
  1.68929065209677E-01  2.06410385084635E-01  2.03615307776947E-01
  6.68757510793227E-01  2.93708142912085E-01  7.96432842134786E-01
  8.38462814724538E-01  6.20636862970499E-01  3.10674742450499E-01
  3.38313425586628E-01  8.79056805958851E-01  6.89304398542680E-01
  3.15997915928343E-01  2.87495430308892E-01  4.02265988522319E-01
  8.15921693766463E-01  2.12477743313016E-01  5.97843213679396E-01
  6.80545361639761E-01  8.07147760524451E-01  1.95488178862083E-01
  1.80515148214429E-01  6.92709802934690E-01  8.04413419421057E-01
  9.56522178348210E-01  7.19471735671244E-02  1.96180984688276E-01
  4.56763934182513E-01  4.28779443365062E-01  8.03594237610659E-01
  2.63362699394249E-02  6.99726736316847E-01  1.61522974654143E-01
  5.26256050497925E-01  8.00575411820254E-01  8.38531183262039E-01
  3.33846584059712E-01  1.01753908559353E+00  1.37084829106461E-01
  1.31403305397772E-01  3.56980863185168E-02  7.51962669046681E-01
  8.33906647303176E-01  4.82556069167564E-01  8.63001481114361E-01
  6.31778010690153E-01  4.63811688090988E-01  2.47764931557412E-01
  1.89511876216684E-01  3.58706495661647E-01  1.02895055674926E+00
  8.35635094802780E-01  7.31813365888470E-01  5.37450768939856E-01
  3.35938303120524E-01  7.67868878785362E-01  4.62480225665356E-01
  6.89013647757114E-01  1.41222217609219E-01 -2.90447372056153E-02
  9.89985833304000E-01  4.14564167392247E-01  3.56180144933143E-01
  4.89381020691304E-01  1.08582142739377E+00  6.44083688856406E-01
kptopt   1
            ngfft          72      75      75

ngkpt    2 2 2
nshiftk 1
shiftk 
0.5 0.5 0.5

ecut       30
pawecutdg  30
pawxcdev   0
ixc      -116133
nband    104
diemac   4

ecutsm  0.5
nstep    100
iscf     7
tolvrs   1.0E-20
ionmov   2
optcell  2
dilatmx  1.04
tolmxf   1e-8
ntime    250
strtarget 0.0 0.0 3.39893e-05 3*0.0 



# Printing flags
prtden    1
prteig    0
prtwf     1
prtposcar 0
prtcif    1
