#input for non-centrosymmetric orthorhombic HfO2

ndtset    2

autoparal 1

#Crystal Def.
ntypat   3
natom    26
typat    4*1 4*2 18*3
znucl    57 42 8
acell 3*1

rprim
  1.32177362364170E+01  0.00000000000000E+00  0.00000000000000E+00
  0.00000000000000E+00  1.37087542517415E+01  1.72210793849122E+00
  0.00000000000000E+00  1.72356383906830E+00  1.40937372304728E+01

             xred      8.3675716170E-01  8.1836162502E-01  7.7702874372E-01
                       3.3675716170E-01  6.8163837498E-01  2.2297125628E-01
                       1.2241854519E-01  3.1042281467E-01  6.1240538870E-01
                       6.2241854519E-01  1.8957718533E-01  3.8759461130E-01
                       1.7216047448E-01  1.4020038552E-01  2.0322952773E-01
                       6.7216047448E-01  3.5979961448E-01  7.9677047227E-01
                       8.3073418606E-01  7.2097186782E-01  2.9246016329E-01
                       3.3073418606E-01  7.7902813218E-01  7.0753983671E-01
                       3.1444866717E-01  3.2573321439E-01  2.9948607244E-01
                       8.1444866717E-01  1.7426678561E-01  7.0051392756E-01
                       7.1420218537E-01  8.0716236749E-01  7.5022314907E-02
                       2.1420218537E-01  6.9283763251E-01  9.2497768509E-01
                       9.6851796313E-01  1.9694570468E-01  3.2788081374E-01
                       4.6851796313E-01  3.0305429532E-01  6.7211918626E-01
                       2.2352874274E-02  5.5258416677E-01  3.2671837626E-01
                       5.2235287427E-01  9.4741583323E-01  6.7328162374E-01
                       3.9338878380E-01  9.9069336344E-01  2.7350065421E-01
                       1.4609675623E-01 -4.0576341628E-02  6.3476316201E-01
                       8.9338878380E-01  5.0930663656E-01  7.2649934579E-01
                       6.4609675623E-01  5.4057634163E-01  3.6523683799E-01
                       1.6400079374E-01  2.4436455794E-01  9.6918475066E-01
                       7.8302794865E-01  8.6573266620E-01  4.4707961599E-01
                       2.8302794865E-01  6.3426733380E-01  5.5292038401E-01
                       6.6400079374E-01  2.5563544206E-01  3.0815249341E-02
                       5.6893660245E-02 -9.6421058174E-02  1.9187132349E-01
                       5.5689366024E-01  5.9642105817E-01  8.0812867651E-01
 
kptopt   1
            ngfft          72      75      75
ngkpt    2 2 2
nshiftk 1
shiftk 
0.5 0.5 0.5
ecut       30
ecutsm   0.5
pawecutdg  30
pawxcdev   0
ixc      -116133
nband    104
diemac   4

# First SCF run       
#irdwfk1   1
nstep1    100
iscf1     7
tolvrs1   1.0E-20

#Refinement using tolwfr
nstep2    250
getwfk2   -1
iscf2     7
tolwfr2   1.0E-20

# Printing flags
prtden    1
prteig    0
prtwf     1
prtposcar 0
prtcif    1
