#input for non-centrosymmetric orthorhombic HfO2

ndtset    1

autoparal 1

#Crystal Def.
ntypat   3
natom    26
typat    4*1 4*2 18*3
znucl    57 42 8
acell 3*1

rprim     
  1.32398895680926E+01  6.88283129476028E-02 -1.40246619758162E-01
  7.33482869435168E-02  1.37817298149916E+01 -4.98440185583083E-04
 -1.25591301508698E-01 -3.41695897726227E-03  1.36730083932274E+01


nsym 1


xred      
  8.87275201558593E-01  8.60740453290349E-01  8.58330402469912E-01
  3.28552309266297E-01  6.12492791878171E-01  1.94015285979841E-01
  1.15399138887614E-01  3.59538377426092E-01  6.44279971833010E-01
  6.73016791124915E-01  1.18210083363693E-01  3.07706900841010E-01
  1.49681476348795E-01  1.71355242517242E-01  1.79421076756475E-01
  6.59506241277903E-01  3.58149613353065E-01  8.06086217828534E-01
  8.48419498636292E-01  6.74000542693406E-01  3.21087345455258E-01
  3.41805718003290E-01  8.51547796627429E-01  6.93568435096916E-01
  2.19802230115358E-01  6.70331456396185E-01  8.04828580343543E-01
  3.37161075331651E-01  2.83514609007978E-01  3.32326074943928E-01
  6.65618547036786E-01  7.92416129207980E-01  1.66665192815214E-01
  7.84168810485182E-01  1.72732200216573E-01  7.01470009278880E-01
  6.76953522649526E-03  6.88666262602705E-01  1.14380509112752E-01
  2.76124689072725E-01  9.66892203716988E-01  1.28617821259973E-01
  8.25155942044857E-01  8.49722645676278E-01  4.94947613229494E-01
  8.26434013709026E-01  5.38121943530556E-01  7.81622113920814E-01
  5.47950033096311E-01  9.03369733491194E-01  8.21034207649982E-01
  9.93044581629878E-01  1.93276956706351E-01  3.86686292066503E-01
  7.17343349103553E-01  4.73702541537629E-01  3.69021798564156E-01
  1.74298797420599E-01  3.45093880064423E-01  1.00494904479920E+00
  4.54454902637984E-01  4.05801361104725E-01  6.73465412852646E-01
  1.73325115704911E-01  3.39815900976236E-02  7.14109841107313E-01
  1.09176495283637E+00  5.92818264660048E-01  4.28924308576895E-01
  5.87136553114317E-01  3.36899391579381E-01  3.69311199767724E-02
  4.10315791584542E-01  8.22347250724325E-01  4.62581831876381E-01
 -9.45252952365473E-02  9.62766785434875E-02  1.07294259141908E+00




kptopt   1
ngkpt    2 2 2
nshiftk 1
shiftk 
0.5 0.5 0.5

ecut       30
pawecutdg  30
pawxcdev   0
ixc      -116133
nband    104
diemac   4
ecutsm   0.5

# First SCF run       
#irdwfk1   1
nstep    100
iscf     7
tolvrs   1.0E-20
ionmov   2
optcell  2
dilatmx  1.04
tolmxf   1e-10
ntime    150

# Printing flags
prtden    1
prteig    0
prtwf     1
prtposcar 0
prtcif    0
