#input for non-centrosymmetric orthorhombic HfO2

ndtset    1
autoparal 1

#Crystal Def.

nsym      1
ntypat   3
natom    26
typat    4*1 4*2 18*3
znucl    57 42 8

acell 3*1

rprim
  1.35750019706720E+01  6.97658333631507E-01  7.31872573695556E-02
  7.11292232303281E-01  1.35701194184796E+01 -5.01743659280549E-03
  7.19693340189079E-02 -9.42772321851832E-03  1.33103507239479E+01


xred      
  8.70969457028508E-01  8.18790877082555E-01  8.69763582666343E-01
  3.34928039260395E-01  6.05128920493801E-01  1.23933678292135E-01
  1.64994218522990E-01  3.95505156678761E-01  6.24239636920031E-01
  6.28170295323163E-01  1.81219391230574E-01  3.69104366083962E-01
  1.19462279346938E-01  1.89478947331312E-01  1.61119044148970E-01
  7.05011014651542E-01  2.97658445727550E-01  8.30735435906021E-01
  7.94397889354668E-01  7.01661681385448E-01  3.31401191886442E-01
  3.79737965027390E-01  8.10915059807138E-01  6.61850907810918E-01
  3.05909673397131E-01  3.03925597896724E-01  3.19218203786324E-01
  7.86897516476222E-01  9.79814817212244E-02  6.83667565377665E-01
  7.13492824442835E-01  9.00606790169107E-01  1.83391902304430E-01
  1.93278845528612E-01  6.96184325557399E-01  8.19337516864313E-01
  9.62322742765013E-01  2.51691509355993E-01  3.68169699705656E-01
  5.17864294303305E-01  3.66877893792463E-01  6.68038239481007E-01
 -1.60765214768485E-02  6.34899608466493E-01  1.66411553987462E-01
  5.35418603743483E-01  7.50307242544869E-01  8.67468064330200E-01
  2.30082953641023E-01  9.60538592935958E-01  1.63952854459910E-01
  2.69748450951390E-01  4.01872098408442E-02  6.63242586063550E-01
  8.59036157037635E-01  4.72944207761909E-01  8.12852143581431E-01
  6.41042994814239E-01  5.26559986892105E-01  3.09905975318745E-01
  2.01255794530261E-01  3.39397592246034E-01  9.73870816091595E-01
  9.27414040528089E-01  6.96161876260017E-01  5.42747743957364E-01
  3.01294290514880E-01  6.61597641205729E-01  4.73786157427247E-01
  5.71110190590103E-01  2.99616632590951E-01  4.34960050852959E-02
 -8.41139328435646E-02  1.43990737929896E-01  9.18101118551480E-03
  5.86349922520512E-01  8.56172593111186E-01  5.09114117273914E-01



kptopt   1
ngkpt    2 2 2
nshiftk 1
shiftk 
0.5 0.5 0.5

ecut       30
pawecutdg  30
pawxcdev   0
ixc      -116133
nband    104
diemac   4

ecutsm  0.5
nstep    100
iscf     7
tolvrs   1.0E-20
ionmov   2
optcell  2
dilatmx  1.04
tolmxf   1e-8
ntime    150
strtarget 3*0.0 0.0 1.69946e-05 0.0



# Printing flags
prtden    1
prteig    0
prtwf     1
prtposcar 0
prtcif    1
