#input for KTaO3

ndtset    3

autoparal 1

#Crystal Def.
ntypat   3
natom    26
typat    4*1 4*2 18*3
znucl    57 42 8
acell 3*1


rprim
  1.35743481422850E+01  6.93416270460390E-01  0.00000000000000E+00
  7.15554347296408E-01  1.35696837558564E+01  0.00000000000000E+00
  0.00000000000000E+00  0.00000000000000E+00  1.33110799407212E+01

             xred      8.7147264473E-01  8.1880429632E-01  8.6950971799E-01
                       3.3500357332E-01  6.0480800212E-01  1.2410927656E-01
                       1.6499642668E-01  3.9519199788E-01  6.2410927656E-01
                       6.2852735527E-01  1.8119570368E-01  3.6950971799E-01
                       1.1989700139E-01  1.8930946509E-01  1.6149118191E-01
                       7.0531935626E-01  2.9795073318E-01  8.3106668093E-01
                       7.9468064374E-01  7.0204926682E-01  3.3106668093E-01
                       3.8010299861E-01  8.1069053491E-01  6.6149118191E-01
                       3.0632977466E-01  3.0386303818E-01  3.1930465332E-01
                       7.8659848361E-01  9.8664083401E-02  6.8348153031E-01
                       7.1340151639E-01  9.0133591660E-01  1.8348153031E-01
                       1.9367022534E-01  6.9613696182E-01  8.1930465332E-01
                       9.6342170989E-01  2.5075027408E-01  3.6775452865E-01
                       5.1690863787E-01  3.6603480434E-01  6.6732923857E-01
                      -1.6908637874E-02  6.3396519566E-01  1.6732923857E-01
                       5.3657829011E-01  7.4924972592E-01  8.6775452865E-01
                       2.3022064269E-01  9.6018799738E-01  1.6361071478E-01
                       2.6977935731E-01  3.9812002615E-02  6.6361071478E-01
                       8.5901695667E-01  4.7319116221E-01  8.1131105347E-01
                       6.4098304333E-01  5.2680883779E-01  3.1131105347E-01
                       2.0002302726E-01  3.3899315863E-01  9.7389514656E-01
                       9.2808489062E-01  6.9854475538E-01  5.4314461542E-01
                       2.9997697274E-01  6.6100684137E-01  4.7389514656E-01
                       5.7191510938E-01  3.0145524462E-01  4.3144615425E-02
                      -8.5085190333E-02  1.4391347197E-01  8.9936615426E-03
                       5.8508519033E-01  8.5608652803E-01  5.0899366154E-01
 
nshiftk 1
shiftk 
0.5 0.5 0.5
#chksymbreak 0
kptopt   1
ngkpt    2 2 2

ecut 30
ixc      -116133
nband    104
nstep    150
diemac   4


# Data set 1 - Refinement of already computed GS WFs       
irdwfk1   0
irdden1   0
iscf1     7
tolvrs1   1.0E-20
nstep1    100

# Data Set 2: Response Function calculation : d/dk 
rfelfd2    2 
rfdir2     1    1    1 

nqpt2      1 
qpt2       0.0  0.0  0.0  

getwfk2   -1 
getden2   -1 

kptopt2    2 

iscf2     -3 

tolwfr2    1.0d-22 

# Data set 3 : Response Function calculation - electric field perturbation, phonons, and strain

rfphon3   1            # Will consider phonon-type perturbation 
rfelfd3   3            # Electric Field
rfstrs3   3            # Strains

rfdir3    1   1   1    # Along all reduced coordinate axis 
rfatpol3  1   26        # All the atoms will be displaced 

nqpt3     1            # One wavevector is to be considered 
qpt3      0.0 0.0 0.0  # This wavevector is q=0 (Gamma) 

kptopt3   2            # Automatic generation of k points, taking 
                       # into account the time-reversal symmetry only 

getwfk3   1            # Read the ground-state wavefunctions 
getddk3   2
                                              
tolvrs3   1.0d-20      # SCF stopping criterion 
                       



# Printing flags
prtden    1
prteig    0
prtwf     1
prtposcar 0
prtcif    0

ecutsm   0.5
            ngfft          72      75      75
pawecutdg  30
pawxcdev   0
