#input for non-centrosymmetric orthorhombic HfO2

ndtset    2

autoparal 1

#Crystal Def.
ntypat   3
natom    26
typat    4*1 4*2 18*3
znucl    57 42 8
acell 3*1

rprim
  1.33572644343496E+01  0.00000000000000E+00  0.00000000000000E+00
  0.00000000000000E+00  1.35611127881205E+01  6.81275534393270E-01
  0.00000000000000E+00  7.08362626811627E-01  1.35513245266046E+01

             xred      8.7014991514E-01  8.7220900108E-01  8.1881537337E-01
                       3.7014991514E-01  6.2779099892E-01  1.8118462663E-01
                       1.2404832855E-01  3.3532018230E-01  6.0497220842E-01
                       6.2404832855E-01  1.6467981770E-01  3.9502779158E-01
                       1.6108856762E-01  1.1963531974E-01  1.8936102813E-01
                       6.6108856762E-01  3.8036468026E-01  8.1063897187E-01
                       8.3136436964E-01  7.0477427341E-01  2.9784920993E-01
                       3.3136436964E-01  7.9522572659E-01  7.0215079007E-01
                       3.1901272024E-01  3.0582840532E-01  3.0442946861E-01
                       8.1901272024E-01  1.9417159468E-01  6.9557053139E-01
                       6.8413376100E-01  7.8597039141E-01  9.8458671074E-02
                       1.8413376100E-01  7.1402960859E-01  9.0154132893E-01
                       9.7429081559E-01  2.0020601055E-01  3.3929509675E-01
                       4.7429081559E-01  2.9979398945E-01  6.6070490325E-01
                       4.3450661357E-02  5.7238004474E-01  3.0149677177E-01
                       5.4345066136E-01  9.2761995526E-01  6.9850322823E-01
                       3.6673861864E-01  9.6277118480E-01  2.4976933773E-01
                       1.6814264295E-01 -1.6273060190E-02  6.3389683744E-01
                       8.6673861864E-01  5.3722881520E-01  7.5023066227E-01
                       6.6814264295E-01  5.1627306019E-01  3.6610316256E-01
                       1.6284748888E-01  2.3041604843E-01  9.6011789993E-01
                       8.1153842449E-01  8.5909538049E-01  4.7312205568E-01
                       3.1153842449E-01  6.4090461951E-01  5.2687794432E-01
                       6.6284748888E-01  2.6958395157E-01  3.9882100069E-02
                       8.1936859178E-03 -8.4775575469E-02  1.4369924714E-01
                       5.0819368592E-01  5.8477557547E-01  8.5630075286E-01
 
kptopt   1
            ngfft          72      75      75
ngkpt    2 2 2
nshiftk 1
shiftk 
0.5 0.5 0.5
ecut       30
ecutsm  0.5
pawecutdg  30
pawxcdev   0
ixc      -116133
nband    104
diemac   4

# First SCF run       
#irdwfk1   1
nstep1    100
iscf1     7
tolvrs1   1.0E-20

#Refinement using tolwfr
nstep2    250
getwfk2   -1
iscf2     7
tolwfr2   1.0E-20

# Printing flags
prtden    1
prteig    0
prtwf     1
prtposcar 0
prtcif    1
