#input for KTaO3

ndtset    3

autoparal 1

#Crystal Def.
ntypat   3
natom    26
typat    4*1 4*2 18*3
znucl    57 42 8
acell 3*0.999 Angstrom

ngfft 72 72 72

rprim
7.1547  0.0000  0.0000
0.0000  7.1547  0.0000
0.0000  0.0000  7.1547

xred  
8.6989213814E-01  8.8762437517E-01  8.2521345833E-01
  3.6989213814E-01  6.1237562483E-01  1.7478654167E-01
  1.3680625317E-01  3.3773565567E-01  6.2229571960E-01
  6.3680625317E-01  1.6226434433E-01  3.7770428040E-01
  1.6189860497E-01  1.2109267716E-01  1.9015662136E-01
  6.6189860497E-01  3.7890732284E-01  8.0984337864E-01
  8.2875027016E-01  7.0050166523E-01  2.8991386185E-01
  3.2875027016E-01  7.9949833477E-01  7.1008613815E-01
  3.2379643812E-01  3.0401784286E-01  3.1021970046E-01
  8.2379643812E-01  1.9598215714E-01  6.8978029954E-01
  6.7946782331E-01  7.8030015486E-01  1.0170254185E-01
  1.7946782331E-01  7.1969984514E-01  8.9829745815E-01
  9.8306549603E-01  2.1445610372E-01  3.5301438962E-01
  4.8306549603E-01  2.8554389628E-01  6.4698561038E-01
  4.4186653596E-02  5.8222626494E-01  2.6907307442E-01
  5.4418665360E-01  9.1777373506E-01  7.3092692558E-01
  3.5645651719E-01  9.5630362014E-01  2.3786302107E-01
  1.7405957140E-01 -1.3744332639E-02  6.4262459772E-01
  8.5645651719E-01  5.4369637986E-01  7.6213697893E-01
  6.7405957140E-01  5.1374433264E-01  3.5737540228E-01
  1.6053468188E-01  2.2513450203E-01  9.6541144498E-01
  8.1281351417E-01  8.6200610560E-01  4.7744875562E-01
  3.1281351417E-01  6.3799389440E-01  5.2255124438E-01
  6.6053468188E-01  2.7486549797E-01  3.4588555024E-02
 -6.7279621407E-03 -7.2685024170E-02  1.4480488150E-01
  4.9327203786E-01  5.7268502417E-01  8.5519511850E-01

#chksymbreak 0
kptopt   1
ngkpt    2 2 2
nshiftk 1
shiftk
0.5 0.5 0.5

ecutsm 0.5
ecut 30
ixc      -116133
nband    104
nstep    150
diemac   4


# Data set 1 - Refinement of already computed GS WFs       
irdwfk1   0
irdden1   0
iscf1     7
tolwfr1   1.0E-20
nstep1    100

# Data Set 2: Response Function calculation : d/dk 
rfelfd2    2 
rfdir2     1    1    1 

nqpt2      1 
qpt2       0.0  0.0  0.0  

getwfk2   -1 
getden2   -1 

kptopt2    2 

iscf2     -3 

tolwfr2    1.0d-22 

# Data set 3 : Response Function calculation - electric field perturbation, phonons, and strain

rfphon3   1            # Will consider phonon-type perturbation 
rfelfd3   3            # Electric Field
rfstrs3   3            # Strains

rfdir3    1   1   1    # Along all reduced coordinate axis 
rfatpol3  1   26        # All the atoms will be displaced 

nqpt3     1            # One wavevector is to be considered 
qpt3      0.0 0.0 0.0  # This wavevector is q=0 (Gamma) 

kptopt3   2            # Automatic generation of k points, taking 
                       # into account the time-reversal symmetry only 

getwfk3   1            # Read the ground-state wavefunctions 
getddk3   2
                                              
tolvrs3   1.0d-20      # SCF stopping criterion 
                       



# Printing flags
prtden    1
prteig    0
prtwf     1
prtposcar 0
prtcif    0

pawecutdg  30
pawxcdev   0
