#input for KTaO3

ndtset    3

autoparal 1

#Crystal Def.
ntypat   3
natom    26
typat    4*1 4*2 18*3
znucl    57 42 8
acell 3*1


rprim
  1.35366359910982E+01  1.26952019581730E-02  6.93766711269123E-01
  1.24065226176681E-02  1.34027196377307E+01 -1.87037331226994E-03
  6.86595565218899E-01 -1.82437482033631E-03  1.35476330242134E+01

             xred      8.1787568426E-01  8.6958256245E-01  8.7145889713E-01
                       3.9500580800E-01  6.2389142281E-01  1.6433411314E-01
                       1.8116147322E-01  3.7121603988E-01  6.2638685900E-01
                       6.0521742097E-01  1.2406676211E-01  3.3512086024E-01
                       1.8927702240E-01  1.6084984987E-01  1.1951483975E-01
                       7.0272973312E-01  3.3098104049E-01  7.9508199315E-01
                       8.1035790956E-01  6.6098221665E-01  3.8060858252E-01
                       2.9742146631E-01  8.3167709608E-01  7.0426997693E-01
                       3.0612317398E-01  3.1905625888E-01  3.0520558796E-01
                       9.0239376738E-01  1.8436208325E-01  7.1302381234E-01
                       6.9590473334E-01  8.1866906398E-01  1.9396190758E-01
                       9.8172861915E-02  6.8478334910E-01  7.8500981241E-01
                       9.6060734762E-01  1.6419158168E-01  2.3236513086E-01
                       5.2723212650E-01  3.1157057484E-01  6.4051830291E-01
                       4.0444243037E-02  6.6215026737E-01  2.7102603588E-01
                       4.7235427522E-01  8.1078792484E-01  8.5947480186E-01
                       3.3970966070E-01  9.7489847932E-01  2.0067921907E-01
                       3.0106941750E-01  4.4181167543E-02  5.7370075924E-01
                       6.9810565703E-01  5.4247373808E-01  9.2774233635E-01
                       6.6113031298E-01  4.7473663340E-01  2.9985499518E-01
                       2.4903771930E-01  3.6555069507E-01  9.6222912648E-01
                       7.4906850760E-01  8.6615973307E-01  5.3771040601E-01
                       3.6636198023E-01  6.6942060069E-01  5.1538919009E-01
                       6.3478709094E-01  1.6764525742E-01 -1.6694656297E-02
                       1.4260531543E-01  7.3517261634E-03 -8.3499443365E-02
                       8.5584529144E-01  5.0876387501E-01  5.8552655359E-01
 
nshiftk 1
shiftk 
0.5 0.5 0.5
#chksymbreak 0
kptopt   1
ngkpt    2 2 2

ecut 30
ixc      -116133
nband    104
nstep    150
diemac   4


# Data set 1 - Refinement of already computed GS WFs       
irdwfk1   0
irdden1   0
iscf1     7
tolvrs1   1.0E-20
nstep1    100

# Data Set 2: Response Function calculation : d/dk 
rfelfd2    2 
rfdir2     1    1    1 

nqpt2      1 
qpt2       0.0  0.0  0.0  

getwfk2   -1 
getden2   -1 

kptopt2    2 

iscf2     -3 

tolwfr2    1.0d-22 

# Data set 3 : Response Function calculation - electric field perturbation, phonons, and strain

rfphon3   1            # Will consider phonon-type perturbation 
rfelfd3   3            # Electric Field
rfstrs3   3            # Strains

rfdir3    1   1   1    # Along all reduced coordinate axis 
rfatpol3  1   26        # All the atoms will be displaced 

nqpt3     1            # One wavevector is to be considered 
qpt3      0.0 0.0 0.0  # This wavevector is q=0 (Gamma) 

kptopt3   2            # Automatic generation of k points, taking 
                       # into account the time-reversal symmetry only 

getwfk3   1            # Read the ground-state wavefunctions 
getddk3   2
                                              
tolvrs3   1.0d-20      # SCF stopping criterion 
                       



# Printing flags
prtden    1
prteig    0
prtwf     1
prtposcar 0
prtcif    0

ecutsm  0.5
            ngfft          72      75      75
pawecutdg  30
pawxcdev   0
