#input for non-centrosymmetric orthorhombic HfO2

ndtset    2

autoparal 1

#Crystal Def.
ntypat   3
natom    26
typat    4*1 4*2 18*3
znucl    57 42 8

acell 3*1.012 Angstrom

rprim
7.1547  0.0000  0.0000
0.0000  7.1547  0.0000
0.0000  0.0000  7.1547


             xred      8.6565816067E-01  9.0232430174E-01  8.3297120606E-01
                       3.6565816067E-01  5.9767569826E-01  1.6702879394E-01
                       1.9134168819E-01  3.2179923908E-01  6.3378750615E-01
                       6.9134168819E-01  1.7820076092E-01  3.6621249385E-01
                       1.6500688616E-01  1.2391318209E-01  1.9127215875E-01
                       6.6500688616E-01  3.7608681791E-01  8.0872784125E-01
                       8.1956627984E-01  7.1262127826E-01  2.9086536894E-01
                       3.1956627984E-01  7.8737872174E-01  7.0913463106E-01
                       3.4384803992E-01  2.9103504342E-01  2.9866855421E-01
                       8.4384803992E-01  2.0896495658E-01  7.0133144579E-01
                       6.6560537578E-01  7.7436455408E-01  1.0493673557E-01
                       1.6560537578E-01  7.2563544592E-01  8.9506326443E-01
                       1.0112139445E+00  2.3971741803E-01  3.6896368455E-01
                       5.1121394452E-01  2.6028258197E-01  6.3103631545E-01
                       3.6463089731E-02  6.1740828374E-01  2.4071435684E-01
                       5.3646308973E-01  8.8259171626E-01  7.5928564316E-01
                       3.1607074399E-01  9.3213245694E-01  2.2241708417E-01
                       1.8412381459E-01 -1.9496902076E-02  6.3544713416E-01
                       8.1607074399E-01  5.6786754306E-01  7.7758291583E-01
                       6.8412381459E-01  5.1949690208E-01  3.6455286584E-01
                       1.7136933342E-01  2.1921954572E-01  9.6565901753E-01
                       8.0585749819E-01  8.6982346758E-01  4.8182546544E-01
                       3.0585749819E-01  6.3017653242E-01  5.1817453456E-01
                       6.7136933342E-01  2.8078045428E-01  3.4340982472E-02
                      -5.1132855011E-02 -2.4222318176E-02  1.5153948636E-01
                       4.4886714499E-01  5.2422231818E-01  8.4846051364E-01
 
kptopt   1
            ngfft          72      72      72
ngkpt    2 2 2
nshiftk 1
ecutsm 0.5
ecut 30
pawecutdg  30
pawxcdev   0
ixc      -116133
nband    104
diemac   4

# First SCF run       
#irdwfk1   1
nstep1    100
iscf1     7
tolvrs1   1.0E-20

#Refinement using tolwfr
nstep2    250
getwfk2   -1
iscf2     7
tolwfr2   1.0E-20

# Printing flags
prtden    1
prteig    0
prtwf     1
prtposcar 0
prtcif    1
