#input for non-centrosymmetric orthorhombic HfO2

ndtset    1
autoparal 1

#Crystal Def.

nsym      1
ntypat   3
natom    26
typat    4*1 4*2 18*3
znucl    57 42 8

acell 3*1

rprim
  1.35762347531382E+01  4.84583739025851E-02 -7.03480694043094E-01
  5.55432841369341E-02  1.33142375638748E+01  1.54396445451424E-01
 -7.01388535168089E-01  1.54546801646381E-01  1.35727352028384E+01

xred      
  8.95346068572600E-01  8.75726113153828E-01  8.34058229340744E-01
  3.19426755374403E-01  6.27565812004405E-01  1.26249857464795E-01
  1.05664129258896E-01  3.76396070771362E-01  6.64268907094478E-01
  6.82610674069272E-01  1.35615844848924E-01  3.68135284820115E-01
  2.01485645702459E-01  1.67012160484594E-01  2.05741819696720E-01
  6.90594434915395E-01  3.38785319989824E-01  8.80968096433152E-01
  7.96958867459121E-01  6.71212307893928E-01  2.95476907491056E-01
  3.11327661178612E-01  8.37724636054440E-01  6.20416105902826E-01
  3.98251289855152E-01  3.17067350284373E-01  2.85763217192667E-01
  8.01870883357075E-01  1.81437028407901E-01  6.93132244062901E-01
  5.95483015399961E-01  8.15315357612598E-01  2.10708452392080E-01
  1.93291751929821E-01  6.80073540876933E-01  8.05852112156869E-01
  1.02618032679185E+00  1.91767570344767E-01  3.58207168514641E-01
  4.60580199720687E-01  3.40106555392475E-01  7.72909936708798E-01
 -2.79943711286164E-02  6.86236185740984E-01  1.40774758941616E-01
  5.38993807430383E-01  8.32327747973131E-01  7.33791161760199E-01
  1.95645289378681E-01  9.55578360889077E-01  7.52409289842184E-02
  1.61860982798812E-01  2.64138044271629E-02  6.98481555702823E-01
  8.39531689942479E-01  5.25824058097163E-01  7.99065884838733E-01
  7.99880392656582E-01  4.58849921528269E-01  4.32504866959852E-01
  1.35474370408310E-01  3.32046148845362E-01  1.01395289907413E+00
  8.65806502457124E-01  8.34481968670762E-01  4.79880022091638E-01
  2.51456412004041E-01  6.34720911334905E-01  4.64469374900318E-01
  7.54429671226837E-01  1.28589429179698E-01  3.74035515390685E-02
  6.47144404576329E-01  4.86076647578521E-01  1.08729562650465E+00
  3.58699144674695E-01  9.93049147563356E-01  4.15251029437861E-01



kptopt   1
            ngfft          72      75      75

ngkpt    2 2 2
nshiftk 1
shiftk 
0.5 0.5 0.5

ecut       30
pawecutdg  30
pawxcdev   0
ixc      -116133
nband    104
diemac   4

ecutsm  0.5
nstep    100
iscf     7
tolvrs   1.0E-20
ionmov   2
optcell  2
dilatmx  1.04
tolmxf   1e-8
ntime    150
strtarget 3*0.0 3.39893e-05 2*0.0 



# Printing flags
prtden    1
prteig    0
prtwf     1
prtposcar 0
prtcif    1
