#input for non-centrosymmetric orthorhombic HfO2

ndtset    1
autoparal 1

#Crystal Def.

nsym      1
ntypat   3
natom    26
typat    4*1 4*2 18*3
znucl    57 42 8

acell 3*1

rprim
  1.35692922094211E+01 -1.51888144509109E-04 -7.03588228485572E-01
 -1.02675297861928E-04  1.33114322143712E+01  8.91508658174580E-04
 -7.00946152855460E-01  9.14633237589718E-04  1.35765217993444E+01

xred      
 8.9540233921E-01  8.7604258564E-01  8.3512406720E-01
 3.1845177249E-01  6.3008922445E-01  1.2856716737E-01
 1.0504389444E-01  3.7562776205E-01  6.6504974323E-01
 6.8112594208E-01  1.3061248734E-01  3.7211306250E-01
 2.0216307860E-01  1.6851109039E-01  2.0555925642E-01
 6.8955443688E-01  3.3877840250E-01  8.8028361050E-01
 7.9766285594E-01  6.6907521148E-01  2.9527247642E-01
 3.1060484839E-01  8.3822394889E-01  6.1958440785E-01
 4.0154216527E-01  3.1631996644E-01  2.8649763501E-01
 8.0475074358E-01  1.8075983885E-01  6.9394007447E-01
 5.9804020008E-01  8.1639871189E-01  2.1463466635E-01
 1.9649883675E-01  6.8069892782E-01  8.0608559617E-01
 1.0264790977E+00  1.8967263531E-01  3.5864267622E-01
 4.6089933482E-01  3.3692228359E-01  7.6878479189E-01
-2.7533462396E-02  6.8806311789E-01  1.4091792381E-01
 5.4028329744E-01  8.3608555744E-01  7.2847470861E-01
 1.9742032507E-01  9.5629282408E-01  7.2206102854E-02
 1.6162959525E-01  2.6143921787E-02  7.0038914104E-01
 8.3965495107E-01  5.2614457987E-01  8.0032119885E-01
 8.0065968834E-01  4.5721876851E-01  4.2880134197E-01
 1.3482190092E-01  3.3218609727E-01  1.0168163084E+00
 8.6678404008E-01  8.3309578851E-01  4.8302260459E-01
 2.4874697655E-01  6.3237038083E-01  4.6283214476E-01
 7.5033591328E-01  1.3214457989E-01  3.6432270442E-02
 6.4383067059E-01  4.9108410267E-01  1.0850015332E+00
 3.5514655759E-01  9.9143720456E-01  4.1464548988E-01




kptopt   1
            ngfft          72      75      75

ngkpt    2 2 2
nshiftk 1
shiftk 
0.5 0.5 0.5

ecut       30
pawecutdg  30
pawxcdev   0
ixc      -116133
nband    104
diemac   4

ecutsm  0.5
nstep    100
iscf     7
tolvrs   1.0E-20
ionmov   2
optcell  2
dilatmx  1.04
tolmxf   1e-8
ntime    150
strtarget 2*0.0 -1.69946e-05 3*0.0 



# Printing flags
prtden    1
prteig    0
prtwf     1
prtposcar 0
prtcif    1
