#input for non-centrosymmetric orthorhombic HfO2

ndtset    1
autoparal 1

#Crystal Def.

nsym      1
ntypat   3
natom    26
typat    4*1 4*2 18*3
znucl    57 42 8

acell 3*1

rprim
  1.32691381824761E+01 -3.15884284808133E-04 -2.42553240561515E-03
 -4.06332467717103E-04  1.35871048429830E+01 -6.95230031580363E-01
 -2.34602510380583E-03 -7.19715767115261E-01  1.35877769260500E+01

xred      
  8.75981713518357E-01  8.35024872738407E-01  8.95523065450112E-01
  3.75811850720689E-01  6.65170318349867E-01  1.04703809822699E-01
  1.30696208625887E-01  3.71779561831066E-01  6.81218430087556E-01
  6.30767299635381E-01  1.28884127824828E-01  3.18474235185109E-01
  1.68849459769588E-01  2.05538198692035E-01  2.02346337997640E-01
  6.68851273238172E-01  2.95039449449903E-01  7.97704222510011E-01
  8.38229241162163E-01  6.19652297568029E-01  3.10789362379265E-01
  3.38412977794511E-01  8.80132961439970E-01  6.89090476892635E-01
  3.16660028608067E-01  2.86494526828951E-01  4.01843168270668E-01
  8.16513165442527E-01  2.14603386165645E-01  5.98161523210878E-01
  6.80698614815349E-01  8.06245178174395E-01  1.96488267276022E-01
  1.80563271827452E-01  6.93852790975059E-01  8.04193996631274E-01
  9.56489299051358E-01  7.14380255893864E-02  1.97430486299233E-01
  4.56611393940252E-01  4.29052703658973E-01  8.01611399054896E-01
  2.66291930565919E-02  6.99978581597865E-01  1.61816955436817E-01
  5.26489021241648E-01  8.00318539796102E-01  8.38879515183778E-01
  3.33240825333299E-01  1.01714403910452E+00  1.35057366183684E-01
  1.31514131090334E-01  3.62291819682670E-02  7.50904198174813E-01
  8.33268054152435E-01  4.83014772564698E-01  8.66276671898274E-01
  6.31609181688055E-01  4.63295812799589E-01  2.48239033456008E-01
  1.89193544693338E-01  3.58385015140804E-01  1.02691293216140E+00
  8.36400506012445E-01  7.28636634326192E-01  5.40075684894401E-01
  3.36460395668526E-01  7.69251115673327E-01  4.60515739918140E-01
  6.88366301032223E-01  1.41268509276593E-01 -2.75684852113072E-02
  9.90893821402717E-01  4.14221329338294E-01  3.55094010638791E-01
  4.90799226434627E-01  1.08534806908014E+00  6.44217596265008E-01

kptopt   1
            ngfft          72      75      75

ngkpt    2 2 2
nshiftk 1
shiftk 
0.5 0.5 0.5

ecut       30
pawecutdg  30
pawxcdev   0
ixc      -116133
nband    104
diemac   4

ecutsm  0.5
nstep    100
iscf     7
tolvrs   1.0E-20
ionmov   2
optcell  2
dilatmx  1.04
tolmxf   1e-8
ntime    150
strtarget -1.69946e-05 5*0.0 



# Printing flags
prtden    1
prteig    0
prtwf     1
prtposcar 0
prtcif    1
