#input for non-centrosymmetric orthorhombic HfO2

ndtset    2

autoparal 1

#Crystal Def.
ntypat   3
natom    26
typat    4*1 4*2 18*3
znucl    57 42 8

acell 3*7.1547 Angstrom
             
xred      
 8.6966904010E-01  8.8786004360E-01  8.2455638511E-01
 3.6966904010E-01  6.1213995640E-01  1.7544361489E-01
 1.3764733942E-01  3.3677196265E-01  6.2248343009E-01
 6.3764733942E-01  1.6322803735E-01  3.7751656991E-01
 1.6201555968E-01  1.2119425710E-01  1.8987784401E-01
 6.6201555968E-01  3.7880574290E-01  8.1012215599E-01
 8.2843848421E-01  7.0122012775E-01  2.8889963282E-01
 3.2843848421E-01  7.9877987225E-01  7.1110036718E-01
 3.2407452444E-01  3.0394010991E-01  3.1045134271E-01
 8.2407452444E-01  1.9605989009E-01  6.8954865729E-01
 6.7935570807E-01  7.8028810918E-01  1.0074401276E-01
 1.7935570807E-01  7.1971189082E-01  8.9925598724E-01
 9.8384677918E-01  2.1473290032E-01  3.5323396997E-01
 4.8384677918E-01  2.8526709968E-01  6.4676603003E-01
 4.4090112784E-02  5.8374122295E-01  2.6866096153E-01
 5.4409011278E-01  9.1625877705E-01  7.3133903847E-01
 3.5563335167E-01  9.5614265828E-01  2.3730567324E-01
 1.7421377479E-01 -1.4355521021E-02  6.4350163536E-01
 8.5563335167E-01  5.4385734172E-01  7.6269432676E-01
 6.7421377479E-01  5.1435552102E-01  3.5649836464E-01
 1.6150248459E-01  2.2567883189E-01  9.6560810748E-01
 8.1210626693E-01  8.6267123882E-01  4.7617264033E-01
 3.1210626693E-01  6.3732876118E-01  5.2382735967E-01
 6.6150248459E-01  2.7432116811E-01  3.4391892524E-02
-7.5934258716E-03 -7.1153183033E-02  1.4367508069E-01
 4.9240657413E-01  5.7115318303E-01  8.5632491931E-01
 
kptopt   1
            ngfft          72      75      75
ngkpt    2 2 2
nshiftk 1
shiftk 
0.5 0.5 0.5
pawecutdg  30
pawxcdev   0
ixc      -116133
nband    104
diemac   4

# First SCF run       
#irdwfk1   1
nstep1    100
iscf1     7
tolvrs1   1.0E-20

#Refinement using tolwfr
nstep2    250
getwfk2   -1
iscf2     7
tolwfr2   1.0E-20

# Printing flags
prtden    1
prteig    0
prtwf     1
prtposcar 0
prtcif    1
