#input for non-centrosymmetric orthorhombic HfO2

ndtset    1

autoparal 1

#Crystal Def.
ntypat   3
natom    26
typat    4*1 4*2 18*3
znucl    57 42 8
acell 3*7.1547 Angstrom
nsym 1

xred
  0.85290000  0.85290000  0.85290000
  0.35290000  0.64710000  0.14710000
  0.14710000  0.35290000  0.64710000
  0.64710000  0.14710000  0.35290000
  0.16950000  0.16950000  0.16950000
  0.66950000  0.33050000  0.83050000
  0.83050000  0.66950000  0.33050000
  0.33050000  0.83050000  0.66950000
0.31640000  0.31640000  0.31640000  
0.81640000  0.18360000  0.68360000  
 0.68360000  0.81640000  0.18360000 
 0.18360000  0.68360000  0.81640000 
 0.99290000  0.18200000  0.33600000 
 0.49290000  0.31800000  0.66400000 
 0.00710000  0.68200000  0.16400000 
 0.50710000  0.81800000  0.83600000 
 0.33600000  0.99290000  0.18200000 
 0.16400000  0.00710000  0.68200000 
 0.83600000  0.50710000  0.81800000 
 0.66400000  0.49290000  0.31800000 
 0.18200000  0.33600000  0.99290000 
 0.81800000  0.83600000  0.50710000 
 0.31800000  0.66400000  0.49290000 
 0.68200000  0.16400000  0.00710000 
 0.975  0.525  0.475 
 0.475  0.975  0.525 


kptopt   1
ngkpt    2 2 2
nshiftk 1
shiftk 
0.5 0.5 0.5

ecut       30
pawecutdg  30
pawxcdev   0
ixc      -116133
nband    104
diemac   4
ecutsm   0.5

# First SCF run       
#irdwfk1   1
nstep    100
iscf     7
tolvrs   1.0E-20
ionmov   2
optcell  2
dilatmx  1.04
tolmxf   1e-10
ntime    150

# Printing flags
prtden    1
prteig    0
prtwf     1
prtposcar 0
prtcif    0
