#input for non-centrosymmetric orthorhombic HfO2

ndtset    2

autoparal 1

#Crystal Def.
ntypat   3
natom    26
typat    4*1 4*2 18*3
znucl    57 42 8
acell 3*1

rprim
  1.32865036605105E+01 -4.78721635646374E-04  3.66208640411899E-03
 -8.84205510031567E-04  1.36866628322873E+01 -6.91238085787432E-01
  3.85752526666076E-03 -7.23746892614483E-01  1.35333330063673E+01

             xred      8.7560331780E-01  8.3432052750E-01  8.9542854872E-01
                       3.7554471141E-01  6.6519738734E-01  1.0417577270E-01
                       1.3015896355E-01  3.7261179399E-01  6.8205646872E-01
                       6.2930414435E-01  1.2590092844E-01  3.1835990561E-01
                       1.6901138171E-01  2.0508961650E-01  2.0223184517E-01
                       6.6918682964E-01  2.9509216246E-01  7.9833245941E-01
                       8.3835726127E-01  6.1854447540E-01  3.1070714983E-01
                       3.3828443899E-01  8.8130933549E-01  6.8905293728E-01
                       3.1666149996E-01  2.8370037116E-01  4.0269230506E-01
                       8.1587989984E-01  2.1692131337E-01  5.9696272923E-01
                       6.8046441805E-01  8.0528002141E-01  1.9613650182E-01
                       1.8062798183E-01  6.9407444087E-01  8.0238675834E-01
                       9.5648522433E-01  7.3023538223E-02  2.0065063346E-01
                       4.5683551048E-01  4.2774662352E-01  8.0165864776E-01
                       2.6044293419E-02  7.0021085886E-01  1.6064643186E-01
                       5.2592781113E-01  7.9997864609E-01  8.3873674299E-01
                       3.3209263124E-01  1.0178183143E+00  1.3259137665E-01
                       1.3155046726E-01  3.5836739015E-02  7.5087030381E-01
                       8.3277457626E-01  4.8211212977E-01  8.6729662827E-01
                       6.3253829004E-01  4.6317992544E-01  2.4883894979E-01
                       1.8914769192E-01  3.5840372808E-01  1.0271604354E+00
                       8.3545594560E-01  7.2762276080E-01  5.4059205531E-01
                       3.3719500760E-01  7.7347320928E-01  4.5862014359E-01
                       6.8995030617E-01  1.4098187178E-01 -2.7342864167E-02
                       9.9310510990E-01  4.1687119555E-01  3.5551757942E-01
                       4.9181228622E-01  1.0846980854E+00  6.4563955406E-01
 
kptopt   1
            ngfft          72      75      75
ngkpt    2 2 2
nshiftk 1
shiftk 
0.5 0.5 0.5
ecut       30
ecutsm  0.5
pawecutdg  30
pawxcdev   0
ixc      -116133
nband    104
diemac   4

# First SCF run       
#irdwfk1   1
nstep1    100
iscf1     7
tolvrs1   1.0E-20

#Refinement using tolwfr
nstep2    250
getwfk2   -1
iscf2     7
tolwfr2   1.0E-20

# Printing flags
prtden    1
prteig    0
prtwf     1
prtposcar 0
prtcif    1
