#input for non-centrosymmetric orthorhombic HfO2

ndtset    1
autoparal 1

#Crystal Def.

nsym      1
ntypat   3
natom    26
typat    4*1 4*2 18*3
znucl    57 42 8

acell 3*1

rprim
  1.32865031095781E+01 -4.79537925941357E-04  3.66150375342169E-03
 -8.85014716798916E-04  1.36866621023708E+01 -6.91242966420742E-01
  3.85697438190393E-03 -7.23751395682611E-01  1.35333386405975E+01

xred      
  8.75603422046043E-01  8.34320441072655E-01  8.95428582505058E-01
  3.75545032314587E-01  6.65197549163994E-01  1.04175596540900E-01
  1.30158979641874E-01  3.72611294004716E-01  6.82056874223936E-01
  6.29304573778835E-01  1.25901385879469E-01  3.18359701709254E-01
  1.69011639315333E-01  2.05089814897404E-01  2.02232059269573E-01
  6.69186778404391E-01  2.95091649902620E-01  7.98332144295433E-01
  8.38357229626784E-01  6.18544654155753E-01  3.10707184940010E-01
  3.38284239820470E-01  8.81309147759063E-01  6.89052937607103E-01
  3.16661435304675E-01  2.83700763795180E-01  4.02692639497225E-01
  8.15880208522377E-01  2.16920127165948E-01  5.96962857111973E-01
  6.80464525130371E-01  8.05280423084666E-01  1.96136455249658E-01
  1.80628036592315E-01  6.94074195812836E-01  8.02386658884107E-01
  9.56485554457711E-01  7.30235163450148E-02  2.00650179492401E-01
  4.56835552787528E-01  4.27746331492628E-01  8.01658577413087E-01
  2.60441926271698E-02  7.00210573892799E-01  1.60646380544823E-01
  5.25927785304046E-01  7.99978793810864E-01  8.38736512571829E-01
  3.32093061437206E-01  1.01781865627833E+00  1.32591522727433E-01
  1.31550380255400E-01  3.58366495198840E-02  7.50871106854391E-01
  8.32774553106589E-01  4.82111893294918E-01  8.67295870892213E-01
  6.32537907977223E-01  4.63180357990779E-01  2.48838589963082E-01
  1.89147853850368E-01  3.58404197769242E-01  1.02716105819284E+00
  8.35455795478395E-01  7.27623249051165E-01  5.40591930125448E-01
  3.37194378595445E-01  7.73473222811031E-01  4.58620115145200E-01
  6.89950331218037E-01  1.40981960517050E-01 -2.73428458271920E-02
  9.93104507141177E-01  4.16871080009600E-01  3.55517822570789E-01
  4.91812045220746E-01  1.08469807047580E+00  6.45639487568134E-01
kptopt   1
            ngfft          72      75      75

ngkpt    2 2 2
nshiftk 1
shiftk 
0.5 0.5 0.5

ecut       30
pawecutdg  30
pawxcdev   0
ixc      -116133
nband    104
diemac   4

ecutsm  0.5
nstep    100
iscf     7
tolvrs   1.0E-20
ionmov   2
optcell  2
dilatmx  1.04
tolmxf   1e-8
ntime    150
strtarget 0.0 3.39893e-05 4*0.0 



# Printing flags
prtden    1
prteig    0
prtwf     1
prtposcar 0
prtcif    1
