#input for non-centrosymmetric orthorhombic HfO2

ndtset    2

autoparal 1

#Crystal Def.
ntypat   3
natom    26
typat    4*1 4*2 18*3
znucl    57 42 8
acell 3*1

rprim
  1.33255629693183E+01  0.00000000000000E+00  0.00000000000000E+00
  0.00000000000000E+00  1.35216837583764E+01  6.80850367267775E-01
  0.00000000000000E+00  7.04215803610699E-01  1.35840408912835E+01

             xred      8.6959962234E-01  8.7153672263E-01  8.1928321828E-01
                       3.6959962234E-01  6.2846327737E-01  1.8071678172E-01
                       1.2398875869E-01  3.3557322009E-01  6.0502981526E-01
                       6.2398875869E-01  1.6442677991E-01  3.9497018474E-01
                       1.6116229858E-01  1.2014995662E-01  1.8939238505E-01
                       6.6116229858E-01  3.7985004338E-01  8.1060761495E-01
                       8.3141401491E-01  7.0486093050E-01  2.9780171721E-01
                       3.3141401491E-01  7.9513906950E-01  7.0219828279E-01
                       3.1911717783E-01  3.0613827239E-01  3.0464780949E-01
                       8.1911717783E-01  1.9386172761E-01  6.9535219051E-01
                       6.8373694772E-01  7.8679727614E-01  9.9050596488E-02
                       1.8373694772E-01  7.1320272386E-01  9.0094940351E-01
                       9.7378691107E-01  2.0013084495E-01  3.3908231652E-01
                       4.7378691107E-01  2.9986915505E-01  6.6091768348E-01
                       4.3599724040E-02  5.7149522978E-01  3.0191108634E-01
                       5.4359972404E-01  9.2850477022E-01  6.9808891366E-01
                       3.6734420199E-01  9.6285639920E-01  2.5002347981E-01
                       1.6756376556E-01 -1.5977095187E-02  6.3442326545E-01
                       8.6734420199E-01  5.3714360080E-01  7.4997652019E-01
                       6.6756376556E-01  5.1597709519E-01  3.6557673455E-01
                       1.6284605640E-01  2.3130899212E-01  9.6081396858E-01
                       8.1196942957E-01  8.5881811994E-01  4.7330103473E-01
                       3.1196942957E-01  6.4118188006E-01  5.2669896527E-01
                       6.6284605640E-01  2.6869100788E-01  3.9186031422E-02
                       8.8710913087E-03 -8.5588429563E-02  1.4371267401E-01
                       5.0887109131E-01  5.8558842956E-01  8.5628732599E-01
 
kptopt   1
            ngfft          72      75      75
ngkpt    2 2 2
nshiftk 1
shiftk 
0.5 0.5 0.5
ecut       30
ecutsm  0.5
pawecutdg  30
pawxcdev   0
ixc      -116133
nband    104
diemac   4

# First SCF run       
#irdwfk1   1
nstep1    100
iscf1     7
tolvrs1   1.0E-20

#Refinement using tolwfr
nstep2    250
getwfk2   -1
iscf2     7
tolwfr2   1.0E-20

# Printing flags
prtden    1
prteig    0
prtwf     1
prtposcar 0
prtcif    1
