#input for KTaO3

ndtset 2

autoparal 1

#Crystal Def.
ntypat   3
natom    104
typat    16*1 16*2 72*3
znucl    57 42 8
acell 3*1


rprim
  2.68405795720984E+01 -5.41801841905503E-01 -1.10005583716921E-02
 -5.39473783006831E-01  2.72195134011351E+01  3.19221099880932E-01
 -6.71301829217933E-03  1.58226353568453E-01  1.35502849794011E+01

             xred      4.3051542847E-01  4.3798780209E-01  8.2906251595E-01
                       1.4790590574E-01  3.0398088191E-01  1.1541446036E-01
                       1.0418632359E-01  1.6937455714E-01  5.9594369685E-01
                       3.2052247006E-01  6.2200610731E-02  3.3757504504E-01
                       9.1170876723E-01  4.4195189894E-01  8.7677962602E-01
                       6.8146398947E-01  3.3637798420E-01  1.7409251889E-01
                       5.6957066467E-01  2.0086534484E-01  6.9916069516E-01
                       8.2886258709E-01  7.7219047207E-02  3.7324456937E-01
                       4.3149855601E-01  9.3635739280E-01  8.2632059578E-01
                       1.8294687897E-01  8.2799076474E-01  1.4064222389E-01
                       9.5733655268E-02  6.6990965182E-01  6.2336190042E-01
                       3.2067580423E-01  5.7139790636E-01  3.4175977547E-01
                       9.0446836654E-01  9.3968025775E-01  8.6013081847E-01
                       6.5382249471E-01  8.1525502453E-01  1.9030728414E-01
                       5.5592240394E-01  6.8211015468E-01  6.4453612857E-01
                       8.0936874566E-01  5.7323832868E-01  3.4600973581E-01
                       9.0408510936E-02  6.3858817248E-02  1.5527807819E-01
                       3.2773881165E-01  1.7394487681E-01  7.8143742334E-01
                       4.0063923171E-01  3.2679884944E-01  3.1541526585E-01
                       1.5898209192E-01  4.0255402900E-01  6.5111115030E-01
                       6.0258902720E-01  9.6845676056E-02  2.0204225941E-01
                       8.5517758456E-01  1.7494377304E-01  8.3365299517E-01
                       9.2023312774E-01  3.3497087487E-01  3.2448583361E-01
                       6.7149940194E-01  4.2441433597E-01  7.0763837735E-01
                       8.2836987976E-02  5.4800521884E-01  1.7850833281E-01
                       3.2147562674E-01  6.6368169647E-01  8.1373383678E-01
                       4.1844173636E-01  8.4726986460E-01  2.9139905472E-01
                       1.3628008850E-01  8.9709599819E-01  6.9234653172E-01
                       5.7250223896E-01  5.8219942687E-01  1.9435684182E-01
                       8.3991693265E-01  6.7701084686E-01  8.2203499074E-01
                       9.0821287568E-01  8.2742855426E-01  3.3200417405E-01
                       6.7331238618E-01  9.3137341870E-01  7.0704941926E-01
                       7.2142203941E-02  3.5200086534E-01  8.0828013619E-01
                       1.7386555156E-01  1.5410970417E-01  2.7854657698E-01
                       3.3488607995E-01  3.5058835616E-01  1.0986174209E-01
                       4.2719097809E-01  9.7903396850E-02  6.8658310913E-01
                       5.8403069493E-01  3.5261703795E-01  8.6375001601E-01
                       6.4927995978E-01  1.5043090198E-01  4.0526326779E-01
                       8.4043945631E-01  4.2129566037E-01  2.0875809419E-01
                       9.3238397111E-01  1.4466452406E-01  6.4738406330E-01
                       6.3472900045E-02  8.1362182499E-01  8.1474410911E-01
                       1.5282525623E-01  6.4788461759E-01  2.5907836447E-01
                       3.4253341169E-01  9.2068882002E-01  1.3070025134E-01
                       4.0944491405E-01  5.8950448333E-01  6.8405277566E-01
                       5.7361532759E-01  8.4814955714E-01  7.4780521892E-01
                       6.5513313348E-01  6.5796595043E-01  3.5449223448E-01
                       8.7192479095E-01  9.2884835469E-01  2.0890613777E-01
                       9.1991401806E-01  6.4405319012E-01  6.4359532917E-01
                       8.0275523159E-02  1.4759901689E-01  9.6389797578E-01
                       9.9621137326E-01  7.0689235977E-02  3.1449501848E-01
                       1.8012567108E-01  9.8205875175E-01  2.5731598860E-01
                       3.9420971103E-01  4.2225322803E-01  4.6856156233E-01
                       3.4921299860E-01  2.2675452190E-01  4.2410278776E-01
                       5.1741932940E-01  2.9555717698E-01  2.7267775726E-01
                       3.2543909730E-01  1.2779085693E-01  9.0158006912E-03
                       4.1921028956E-01  2.6994329209E-01  7.6891704953E-01
                       2.4816711183E-01  9.5702699284E-02  6.3548856871E-01
                       2.6081892682E-01  4.4412429342E-01  7.6550962693E-01
                       1.7860095815E-01  3.2897296191E-01  4.6109282859E-01
                       1.0861495930E-01  5.0353976785E-01  5.5630733424E-01
                       1.2412743240E-02  4.0918454515E-01  1.5414997760E-01
                       9.2171216431E-01  3.7654748629E-01  5.5075697725E-01
                       8.2456010241E-01  2.4534974164E-01  3.0877819252E-01
                       4.8369417125E-01  6.1310586103E-02  2.1791663677E-01
                       6.2196280586E-01  1.8211567478E-01  1.0210132199E+00
                       6.7695935705E-01  1.0042050906E+00  1.7382023269E-01
                       7.5451569356E-01  3.8743891668E-01  8.9495761008E-01
                       6.5790500127E-01  3.4531643689E-01  5.2146138301E-01
                       5.8586117878E-01  5.1432300473E-01  6.9892565655E-01
                       8.5108023638E-01  8.8313782913E-02  1.6120389988E-02
                       9.0150085204E-01  2.7531078266E-01  9.4122548716E-01
                       7.4604169168E-01  2.0104774177E-01  7.3980578259E-01
                       3.3783145276E-01  5.9022773320E-01  1.4642690704E-02
                       3.9804561466E-01  7.6429007874E-01  8.0449241197E-01
                       2.5036894466E-01  6.3801347262E-01  5.9460920947E-01
                       1.8337395716E-01  4.7223334209E-01  1.9637583562E-01
                       5.2947150166E-02  5.6909977059E-01  9.3921599056E-01
                       9.8034476218E-01  5.6984929666E-01  3.1416667876E-01
                       3.9179885639E-01  9.2079906544E-01  4.8677145534E-01
                       3.3603213892E-01  7.5049911485E-01  2.7651429030E-01
                       5.0807130059E-01  8.7416429784E-01  9.8522851080E-02
                       6.9144113895E-02 -4.4095010305E-03  6.3913878506E-01
                       2.3917783126E-01  9.1647313716E-01  8.2740932947E-01
                       1.6611006831E-01  8.2804828520E-01  4.9852933319E-01
                       6.6896386640E-01  4.9821821395E-01  2.1967084291E-01
                       4.8243637201E-01  6.1333774302E-01  3.5780314492E-01
                       5.8191650717E-01  6.6646301456E-01  1.0074216403E+00
                       8.3254823310E-01  5.8573168776E-01 -6.2555485678E-03
                       8.8506703694E-01  7.7464135049E-01  9.3882578671E-01
                       7.2987229941E-01  6.9979583780E-01  7.2574026471E-01
                       5.9989516241E-01  2.8532556353E-02  7.4815066736E-01
                       7.3861968755E-01  8.8497557750E-01  9.0542318636E-01
                       6.9475005572E-01  8.9402646861E-01  4.7340625411E-01
                       1.9462575695E-02  7.9000937680E-01  2.6737883303E-01
                       9.1339720635E-01  8.5414363437E-01  5.6893173986E-01
                       8.1795217028E-01  7.4111157628E-01  2.9668859170E-01
                       5.6983995050E-02 -3.7912710233E-02  1.6014240639E-02
                       2.2725071222E-01  2.5320754483E-01  7.9038495064E-01
                       1.0174937539E+00  2.5686500389E-01  3.2767069620E-01
                       7.7375216898E-01  5.0136776054E-01  6.3576775873E-01
                       2.0977833797E-01  7.1273491621E-01  8.8894279058E-01
                       5.2045839069E-01  7.9413210023E-01  4.0317863790E-01
                       4.9513935946E-01  4.8724011927E-01  1.1299422285E-01
                       7.9200162040E-01  1.0140194303E+00  6.6652101072E-01
 
nshiftk 1
shiftk 
0.5 0.5 0.5
#chksymbreak 0
kptopt   1
ngkpt    1 1 1

ecut 30
ixc      -116133
nband    420
nstep    150
diemac   4


# Data set 1 - Refinement of already computed GS WFs       
irdwfk1 1
irdden1 1
iscf1     7
tolvrs1   1.0E-20
nstep1    100


rfphon2   1            # Will consider phonon-type perturbation 

rfdir2    1   1   1    # Along all reduced coordinate axis 
rfatpol2 25 32

nqpt2     1            # One wavevector is to be considered 
qpt2      0.0 0.0 0.0  # This wavevector is q=0 (Gamma) 

kptopt2   2            # Automatic generation of k points, taking 
                       # into account the time-reversal symmetry only 

getwfk2   1            # Read the ground-state wavefunctions 
getddk2   2
                                              
tolvrs2   1.0d-20      # SCF stopping criterion 
                       



# Printing flags
prtden    1
prteig    0
prtwf     1
prtposcar 0
prtcif    0

ecutsm   0.5
            ngfft         144     144      72
pawecutdg  30
pawxcdev   0
