#input for non-centrosymmetric orthorhombic HfO2

ndtset    1
autoparal 1

#Crystal Def.

nsym      1
ntypat   3
natom    26
typat    4*1 4*2 18*3
znucl    57 42 8

acell 3*1

rprim
  1.33271239482565E+01  7.98653274313570E-04 -7.51313379290750E-04
  6.44438533899505E-04  1.35920426503577E+01 -6.80662285452860E-01
 -7.16409439551049E-04 -7.09370324304230E-01  1.35099974764127E+01

xred      
  8.76022051298611E-01  8.35553578096309E-01  8.95148442721957E-01
  3.75751564553318E-01  6.64504084113232E-01  1.05013252653352E-01
  1.29742264544710E-01  3.72918146575894E-01  6.81208083001904E-01
  6.29463803382110E-01  1.27392768727142E-01  3.18554659421175E-01
  1.68570920619137E-01  2.04812399835241E-01  2.02059750943718E-01
  6.68804271340674E-01  2.95885081577209E-01  7.98149384971076E-01
  8.38466176492152E-01  6.19074096879723E-01  3.10659355779741E-01
  3.38777929036342E-01  8.80746802743076E-01  6.89159565167937E-01
  3.16346482092816E-01  2.85793487419565E-01  4.01910200769836E-01
  8.16053983202134E-01  2.15527019106146E-01  5.97911494628835E-01
  6.81007059524056E-01  8.05468070321012E-01  1.96008447246142E-01
  1.80968588021469E-01  6.94472561776307E-01  8.04308911150478E-01
  9.56399125413278E-01  7.20980549770208E-02  1.98680875795829E-01
  4.56698745753730E-01  4.28511424547390E-01  8.00857028113700E-01
  2.61677794332929E-02  7.00396213804774E-01  1.61466770209338E-01
  5.26028434497181E-01  7.99947034010646E-01  8.39145446418700E-01
  3.31888536338781E-01  1.01648574586989E+00  1.33765165586554E-01
  1.32507768111891E-01  3.68811067652801E-02  7.49942365297687E-01
  8.32249536719049E-01  4.83570115111281E-01  8.67704631119376E-01
  6.32825499094654E-01  4.62407639072620E-01  2.49139186909440E-01
  1.88976887573483E-01  3.58703935291120E-01  1.02627064194636E+00
  8.36702630363843E-01  7.28156175449027E-01  5.41148654001901E-01
  3.37471788411764E-01  7.69969665003980E-01  4.59292271626737E-01
  6.88357294494195E-01  1.40766368284658E-01 -2.70371224664594E-02
  9.92064588133937E-01  4.14947429495220E-01  3.55314194864017E-01
  4.91686291509420E-01  1.08501099509921E+00  6.44218342188333E-01

kptopt   1
            ngfft          72      75      75

ngkpt    2 2 2
nshiftk 1
shiftk 
0.5 0.5 0.5

ecut       30
pawecutdg  30
pawxcdev   0
ixc      -116133
nband    104
diemac   4

ecutsm  0.5
nstep    100
iscf     7
tolvrs   1.0E-20
ionmov   2
optcell  2
dilatmx  1.04
tolmxf   1e-8
ntime    250
strtarget 0.0 0.0 -1.69946e-05 3*0.0 



# Printing flags
prtden    1
prteig    0
prtwf     1
prtposcar 0
prtcif    1
