#input for non-centrosymmetric orthorhombic HfO2

ndtset    2

autoparal 1

#Crystal Def.
ntypat   3
natom    26
typat    4*1 4*2 18*3
znucl    57 42 8
acell 3*1

rprim
  1.33271446628672E+01  7.99625908738854E-04 -7.23914677405355E-04
  6.44029584940605E-04  1.35920332225471E+01 -6.80717945125632E-01
 -6.88684069050693E-04 -7.09424871320959E-01  1.35100031861842E+01

             xred      8.7602381101E-01  8.3555074555E-01  8.9514884060E-01
                       3.7575496520E-01  6.6450186200E-01  1.0501190679E-01
                       1.2974416691E-01  3.7290979853E-01  6.8120844576E-01
                       6.2946158176E-01  1.2738854178E-01  3.1855517155E-01
                       1.6857199168E-01  2.0481039924E-01  2.0205653138E-01
                       6.6880197211E-01  2.9588512426E-01  7.9815220684E-01
                       8.3846977574E-01  6.1907148546E-01  3.1065940553E-01
                       3.3877478859E-01  8.8074908108E-01  6.8916197579E-01
                       3.1635066265E-01  2.8579381990E-01  4.0190405732E-01
                       8.1604899454E-01  2.1552673091E-01  5.9791096956E-01
                       6.8100850974E-01  8.0546582827E-01  1.9600543592E-01
                       1.8096822636E-01  6.9447135036E-01  8.0430188866E-01
                       9.5639832339E-01  7.2099877150E-02  1.9867969289E-01
                       4.5669785857E-01  4.2851602762E-01  8.0087251526E-01
                       2.6171417598E-02  7.0039250058E-01  1.6146670718E-01
                       5.2602871832E-01  7.9995043834E-01  8.3914050203E-01
                       3.3188916081E-01  1.0164837117E+00  1.3375892876E-01
                       1.3250217770E-01  3.6881987914E-02  7.4995159705E-01
                       8.3225274261E-01  4.8356757033E-01  8.6770372833E-01
                       6.3283069183E-01  4.6240490898E-01  2.4913688965E-01
                       1.8897229600E-01  3.5870424887E-01  1.0262713207E+00
                       8.3670201188E-01  7.2815769667E-01  5.4114799048E-01
                       3.3747506991E-01  7.6998337315E-01  4.5928910855E-01
                       6.8835684147E-01  1.4076398707E-01 -2.7038931324E-02
                       9.9206759788E-01  4.1494687529E-01  3.5531977051E-01
                       4.9167564569E-01  1.0850220290E+00  6.4422334425E-01
 
kptopt   1
            ngfft          72      75      75
ngkpt    2 2 2
nshiftk 1
shiftk 
0.5 0.5 0.5
ecut       30
ecutsm  0.5
pawecutdg  30
pawxcdev   0
ixc      -116133
nband    104
diemac   4

# First SCF run       
#irdwfk1   1
nstep1    100
iscf1     7
tolvrs1   1.0E-20

#Refinement using tolwfr
nstep2    250
getwfk2   -1
iscf2     7
tolwfr2   1.0E-20

# Printing flags
prtden    1
prteig    0
prtwf     1
prtposcar 0
prtcif    1
