#input for non-centrosymmetric orthorhombic HfO2

ndtset    1

autoparal 1

#Crystal Def.
ntypat   3
natom    26
typat    4*1 4*2 18*3
znucl    57 42 8
acell 3*1

rprim
13.5809266   0.0000000   0.7097836
 0.0000000  13.3206494   0.0000000
 0.6825683   0.0000000  13.5748489


nsym 0

xred
  8.19812422913891E-01  8.71050383485514E-01  8.73281026957869E-01
  3.95830017903612E-01  6.24803218502149E-01  1.63705461750186E-01
  1.80187577086109E-01  3.71050383485514E-01  6.26718973042131E-01
  6.04169982096388E-01  1.24803218502149E-01  3.36294538249814E-01
  1.89184208109178E-01  1.60762097608237E-01  1.20373673528557E-01
  7.03439882440146E-01  3.31569191479512E-01  7.95710177465408E-01
  8.10815791890822E-01  6.60762097608237E-01  3.79626326471443E-01
  2.96560117559854E-01  8.31569191479512E-01  7.04289822534592E-01
  3.04585133954585E-01  3.19350431519236E-01  3.05891447040391E-01
  9.02299652719072E-01  1.83180727262139E-01  7.14933041126068E-01
  6.95414866045416E-01  8.19350431519236E-01  1.94108552959609E-01
  9.77003472809282E-02  6.83180727262139E-01  7.85066958873932E-01
  9.60687271887220E-01  1.62513214638234E-01  2.31832899704155E-01
  5.26045533062665E-01  3.11069078632327E-01  6.44502361878832E-01
  3.93127281127806E-02  6.62513214638234E-01  2.68167100295845E-01
  4.73954466937336E-01  8.11069078632327E-01  8.55497638121168E-01
  3.41848840991011E-01  9.74909415579511E-01  1.99840376213564E-01
  2.99036886972223E-01  4.43342382715908E-02  5.72466338580507E-01
  7.00963113027777E-01  5.44334238271591E-01  9.27533661419493E-01
  6.58151159008990E-01  4.74909415579511E-01  3.00159623786436E-01
  2.48629358792313E-01  3.65813349986757E-01  9.62928143121563E-01
  7.51370641207687E-01  8.65813349986757E-01  5.37071856878437E-01
  3.63532540834908E-01  6.69583540265211E-01  5.14671971789945E-01
  6.36467459165093E-01  1.69583540265211E-01 -1.46719717899450E-02
  1.43567466289839E-01  6.06761277922644E-03 -8.24646139879428E-02
  8.56432533710162E-01  5.06067612779227E-01  5.82464613987943E-01

kptopt   1
ngkpt    2 2 2
nshiftk 1
shiftk 
0.5 0.5 0.5

ecut       30
pawecutdg  30
pawxcdev   0
ixc      -116133
nband    104
diemac   4
ecutsm   0.5

# First SCF run       
#irdwfk1   1
nstep    100
iscf     7
tolvrs   1.0E-20
ionmov   2
optcell  2
dilatmx  1.04
tolmxf   1e-10
ntime    150

# Printing flags
prtden    1
prteig    0
prtwf     1
prtposcar 0
prtcif    0
