#input for non-centrosymmetric orthorhombic HfO2

ndtset    1
autoparal 1

#Crystal Def.

nsym      1
ntypat   3
natom    26
typat    4*1 4*2 18*3
znucl    57 42 8

acell 3*1

rprim
  1.35733965741110E+01  6.79309024291418E-01  1.70609769542204E-02
  6.92311960847386E-01  1.35795622298588E+01 -1.60079979836633E-01
  2.46064693821543E-02 -1.59032929623250E-01  1.33046321415926E+01


xred      
  8.82015204791785E-01  8.23570811597044E-01  8.75636523075502E-01
  3.37004651557957E-01  6.04833925221451E-01  1.23441541202182E-01
  1.67571335718518E-01  3.93360518257772E-01  6.25725116528597E-01
  6.37066450154398E-01  1.84880378971894E-01  3.61244146486974E-01
  1.19230880487160E-01  1.90651125585525E-01  1.62981377705301E-01
  7.05738813709032E-01  2.98581320887847E-01  8.29305572959442E-01
  7.96417348629685E-01  7.01975961868982E-01  3.32519710914613E-01
  3.81543286012096E-01  8.10907731067672E-01  6.60506954274978E-01
  3.09595881261804E-01  2.95252818239487E-01  3.18265858545104E-01
  7.91613733960103E-01  9.65286517906071E-02  6.84274005570293E-01
  7.18244685207235E-01  8.98028086252396E-01  1.83602819940739E-01
  1.97870022424500E-01  6.87838470847941E-01  8.20151171115533E-01
  9.65398944783203E-01  2.56946482315225E-01  3.73497168803734E-01
  5.20217985421323E-01  3.62061161948616E-01  6.62056475262928E-01
 -1.35372470799639E-02  6.31120849949572E-01  1.70721920433209E-01
  5.39286014072013E-01  7.54205303633649E-01  8.63227073104120E-01
  2.16264353989095E-01  9.56490224643059E-01  1.53727538672395E-01
  2.60447620978083E-01  3.47666425485108E-02  6.72258923793405E-01
  8.59313871229893E-01  4.74179952559669E-01  8.12152115970387E-01
  6.41849249268543E-01  5.27195460823261E-01  3.10456244091850E-01
  1.97149375968107E-01  3.35819844888160E-01  9.75254713468236E-01
  9.23488566356932E-01  7.02369543378276E-01  5.47340901012599E-01
  2.98835582833591E-01  6.57061874310633E-01  4.72803164926964E-01
  5.64682179395639E-01  3.06920572445078E-01  3.80450229482817E-02
 -9.56704689420235E-02  1.52525472244144E-01  1.76363094648428E-02
  5.78361677791121E-01  8.61926813739581E-01  5.03167629724269E-01



kptopt   1
ngkpt    2 2 2
nshiftk 1
shiftk 
0.5 0.5 0.5

ecut       30
pawecutdg  30
pawxcdev   0
ixc      -116133
nband    104
diemac   4

ecutsm  0.5
nstep    100
iscf     7
tolvrs   1.0E-20
ionmov   2
optcell  2
dilatmx  1.04
tolmxf   1e-8
ntime    150
strtarget 3*0.0 -1.69946e-05  2*0.0



# Printing flags
prtden    1
prteig    0
prtwf     1
prtposcar 0
prtcif    1
