#input for non-centrosymmetric orthorhombic HfO2

ndtset    2

autoparal 1

#Crystal Def.
ntypat   3
natom    26
typat    4*1 4*2 18*3
znucl    57 42 8
acell 3*1

rprim
  1.35733962151481E+01  6.79308522544047E-01  1.70613800333019E-02
  6.92311451044671E-01  1.35795619420368E+01 -1.60080640662444E-01
  2.46069037663380E-02 -1.59033601043437E-01  1.33046317789785E+01

             xred      8.8201507992E-01  8.2357079539E-01  8.7563661765E-01
                       3.3700471325E-01  6.0483405871E-01  1.2344147712E-01
                       1.6757132301E-01  3.9336057765E-01  6.2572501569E-01
                       6.3706651920E-01  1.8488036114E-01  3.6124404962E-01
                       1.1923080162E-01  1.9065118528E-01  1.6298135658E-01
                       7.0573870440E-01  2.9858136195E-01  8.2930559305E-01
                       7.9641740363E-01  7.0197588685E-01  3.3251982112E-01
                       3.8154337934E-01  8.1090770046E-01  6.6050697660E-01
                       3.0959587665E-01  2.9525271724E-01  3.1826580297E-01
                       7.9161365786E-01  9.6528660289E-02  6.8427410227E-01
                       7.1824452865E-01  8.9802789527E-01  1.8360286338E-01
                       1.9787009007E-01  6.8783853748E-01  8.2015106758E-01
                       9.6539896905E-01  2.5694651017E-01  3.7349731973E-01
                       5.2021804072E-01  3.6206136481E-01  6.6205638008E-01
                      -1.3537071088E-02  6.3112102954E-01  1.7072204491E-01
                       5.3928610934E-01  7.5420531118E-01  8.6322715400E-01
                       2.1626427034E-01  9.5649029062E-01  1.5372726472E-01
                       2.6044790416E-01  3.4766690534E-02  6.7225876681E-01
                       8.5931388378E-01  4.7417992319E-01  8.1215229728E-01
                       6.4184936263E-01  5.2719534260E-01  3.1045601461E-01
                       1.9714914595E-01  3.3581988870E-01  9.7525466239E-01
                       9.2348864510E-01  7.0236936706E-01  5.4734103920E-01
                       2.9883569609E-01  6.5706190949E-01  4.7280306720E-01
                       5.6468184977E-01  3.0692051504E-01  3.8044897098E-02
                      -9.5670817016E-02  1.5252550171E-01  1.7636614691E-02
                       5.7836193355E-01  8.6192661767E-01  5.0316773365E-01
 
kptopt   1
            ngfft          72      75      75
ngkpt    2 2 2
nshiftk 1
shiftk 
0.5 0.5 0.5
ecut       30
ecutsm  0.5
pawecutdg  30
pawxcdev   0
ixc      -116133
nband    104
diemac   4

# First SCF run       
#irdwfk1   1
nstep1    100
iscf1     7
tolvrs1   1.0E-20

#Refinement using tolwfr
nstep2    250
getwfk2   -1
iscf2     7
tolwfr2   1.0E-20

# Printing flags
prtden    1
prteig    0
prtwf     1
prtposcar 0
prtcif    1
