#input for KTaO3

ndtset    3

autoparal 1

#Crystal Def.
ntypat   3
natom    26
typat    4*1 4*2 18*3
znucl    57 42 8
acell 3*1


rprim
  1.32378887903364E+01  6.72086229341016E-02 -1.37490719098058E-01
  7.16631117463385E-02  1.37811050720379E+01  3.26705588802707E-04
 -1.22681298005737E-01 -2.59813171723891E-03  1.36776161047624E+01

xred      
8.8710285415E-01   8.6072174253E-01  8.5878832487E-01
3.2903745070E-01   6.1254687661E-01  1.9418938073E-01
1.1520775233E-01   3.5941969319E-01  6.4448612992E-01
6.7331581284E-01   1.1822928103E-01  3.0774349244E-01
1.5015148606E-01   1.7167979718E-01  1.7951431842E-01
6.5899486299E-01   3.5811093797E-01  8.0606234054E-01
8.4883772465E-01   6.7393395862E-01  3.2119567588E-01
3.4129940959E-01   8.5122023644E-01  6.9314901137E-01
2.1737992547E-01   6.7061392034E-01  8.0334129074E-01
3.3752515454E-01   2.8367064037E-01  3.3266241903E-01
6.6632532550E-01   7.9274226619E-01  1.6677807309E-01
7.8238147444E-01   1.7221211787E-01  7.0081640715E-01
7.4832829489E-03   6.8955441022E-01  1.1467164778E-01
2.7680334532E-01   9.6743360980E-01  1.2854687434E-01
8.2555136898E-01   8.4915860944E-01  4.9533069091E-01
8.2675527715E-01   5.3750482620E-01  7.8220456724E-01
5.4759331773E-01   9.0077429948E-01  8.2126814050E-01
9.9337835142E-01   1.9286205392E-01  3.8684289906E-01
7.1728242349E-01   4.7364574941E-01  3.6864095596E-01
1.7494358427E-01   3.4585457012E-01  1.0054262400E+00
4.5409421653E-01   4.0748388877E-01  6.7387881718E-01
1.7382172319E-01   3.4390503425E-02  7.1448765700E-01
1.0919444930E+00   5.9205441834E-01  4.2838631646E-01
5.8670783254E-01   3.3621892344E-01  3.6816277821E-02
4.1012039240E-01   8.2288499762E-01  4.6218392931E-01
-9.4038842216E-02  9.7077671497E-02  1.0725881223E+00
 
nshiftk 1
shiftk 
0.5 0.5 0.5
#chksymbreak 0
kptopt   1
ngkpt    2 2 2

ecut 30
ixc      -116133
nband    104
nstep    150
diemac   4


# Data set 1 - Refinement of already computed GS WFs       
irdwfk1   0
irdden1   0
iscf1     7
tolvrs1   1.0E-20
nstep1    100

# Data Set 2: Response Function calculation : d/dk 
rfelfd2    2 
rfdir2     1    1    1 

nqpt2      1 
qpt2       0.0  0.0  0.0  

getwfk2   -1 
getden2   -1 

kptopt2    2 

iscf2     -3 

tolwfr2    1.0d-22 

# Data set 3 : Response Function calculation - electric field perturbation, phonons, and strain

rfphon3   1            # Will consider phonon-type perturbation 
rfelfd3   3            # Electric Field
rfstrs3   0            # Strains

rfdir3    1   1   1    # Along all reduced coordinate axis 
rfatpol3  1   26        # All the atoms will be displaced 

nqpt3     1            # One wavevector is to be considered 
qpt3      0.0 0.0 0.0  # This wavevector is q=0 (Gamma) 

kptopt3   2            # Automatic generation of k points, taking 
                       # into account the time-reversal symmetry only 

getwfk3   1            # Read the ground-state wavefunctions 
getddk3   2
                                              
tolvrs3   1.0d-20      # SCF stopping criterion 
                       



# Printing flags
prtden    1
prteig    0
prtwf     1
prtposcar 0
prtcif    0

ecutsm   0.5
ngfft          72      75      75
pawecutdg  30
pawxcdev   0
